** ------------------------------------------------------------------------
** Full-field snapshot at 300% nominal strain, C3D20RUL (nu=0.47), for
** re-checking the gauge volume ratio J after moving to the locking-
** resistant quadratic reduced-integration element.
** ------------------------------------------------------------------------

*include, input=../../../meshes/dogbone_mesh_3d_quad.inp

*material, name=COMPRESSIBLENEOHOOKE, id=rubber
1166666.7, 71428.6

*section, name=section1, material=rubber, type=solid
all

*job, name=dogboneQuadMilestone300Nu047, domain=3d
*solver, solver=NIST, name=theSolver
linsolver=pardiso

*fieldOutput
>>perNode, nSet=all, field=displacement, result=U, name=displacement

*output, type=ensight, name=esExport300
>>configuration, overwrite=yes
>>perNode, fieldOutput=displacement

*step, solver=theSolver
maxInc=0.02, minInc=1e-7, maxNumInc=1000, maxIter=40, criticalIter=8, stepLength=1.0
>>dirichlet, name=gripLeft,  nSet=gripClampLeft,  field=displacement, 1=0.0,   2=0.0
>>dirichlet, name=gripRight, nSet=gripClampRight, field=displacement, 1=285.0, 2=0.0
>>dirichlet, name=z0,        nSet=z0Layer,        field=displacement, 3=0.0
