** ------------------------------------------------------------------------
** Uniaxial tension test on a dogbone specimen (from dogbone.stl)
**
** Geometry (extracted from dogbone.stl, prismatic, constant thickness):
**   overall length      : 115.0 mm  (x in [-57.5, 57.5])
**   grip width           :  25.0 mm  (y in [-12.5, 12.5])
**   grip length          :  15.0 mm  (x in [-57.5,-42.5] and [42.5, 57.5])
**   gauge (narrow) width  :   6.0 mm  (y in [-3.0, 3.0])
**   gauge (narrow) length :  33.0 mm  (x in [-16.5, 16.5])
**   thickness             :   2.0 mm
**
** Modelled as a 2D plane-stress problem (CPS4), since the geometry is
** prismatic (extruded) with constant thickness -> plane-stress with
** thickness=2.0 mm section is exact for this geometry.
**
** Linear elastic material, single load step.
** Dirichlet BCs are applied on the outer 10 mm of each 15 mm grip
** section (x<=-47.5 and x>=47.5) to mimic a rigid mechanical grip:
**   left  grip: ux=0,    uy=0   (fixed)
**   right grip: ux=0.5mm, uy=0  (prescribed displacement)
** ------------------------------------------------------------------------

*include, input=dogbone_mesh.inp

*material, name=linearelastic, id=steel, provider=edelweiss
** E [MPa], nu
210000.0, 0.3

*section, name=section1, thickness=2.0, material=steel, type=plane
all

*job, name=dogboneJob, domain=2d
*solver, solver=NIST, name=theSolver
linsolver=pardiso

*fieldOutput
>>perNode, nSet=all, field=displacement, result=U, name=displacement
>>perNode, nSet=gripClampLeft, field=displacement, result=U, name=U_gripLeft
>>perNode, nSet=gripClampRight, field=displacement, result=U, name=U_gripRight
>>perNode, nSet=gaugeLeftEdge, field=displacement, result=U, name=U_gaugeLeft
>>perNode, nSet=gaugeRightEdge, field=displacement, result=U, name=U_gaugeRight
** per-element strain tensor (Voigt: xx, yy, zz, xy, yz, xz), averaged over the
** element's 4 quadrature points, for contour plotting
>>perElement, elSet=all, result=strain, name=strain, quadraturePoint=0:4, f(x)='np.mean(x,axis=1)'

** monitor the mean axial (x-) displacement of the grip clamps and of the
** narrow gauge section boundaries -> allows a direct comparison of the
** elongation localized in the gauge section vs. the whole free specimen
*output, type=monitor
fieldOutput=U_gripLeft, f(x)='mean(x[:,0])'
*output, type=monitor
fieldOutput=U_gripRight, f(x)='mean(x[:,0])'
*output, type=monitor
fieldOutput=U_gaugeLeft, f(x)='mean(x[:,0])'
*output, type=monitor
fieldOutput=U_gaugeRight, f(x)='mean(x[:,0])'

*output, type=ensight, name=esExport
>>configuration, overwrite=yes
>>perNode, fieldOutput=displacement
>>perElement, fieldOutput=strain

*step, solver=theSolver
maxInc=1.0, minInc=1e-6, maxNumInc=1, maxIter=25, stepLength=1.0
>>dirichlet, name=gripLeft,  nSet=gripClampLeft,  field=displacement, 1=0.0, 2=0.0
>>dirichlet, name=gripRight, nSet=gripClampRight, field=displacement, 1=0.5, 2=0.0
