** ------------------------------------------------------------------------
** Full-field snapshot at 300% nominal strain (75 mm free length, 20 mm
** grip clamp), nu=0.47, for visual comparison against the 10 mm-clamp
** milestone in ../dogbone_neohooke_milestone_300pct.inp.
** ------------------------------------------------------------------------

*include, input=../../../meshes/dogbone_mesh_3d_grip20.inp

*material, name=COMPRESSIBLENEOHOOKE, id=rubber
1166666.7, 71428.6

*section, name=section1, material=rubber, type=solid
all

*job, name=dogboneGrip20Milestone300Nu047, domain=3d
*solver, solver=NIST, name=theSolver
linsolver=pardiso

*fieldOutput
>>perNode, nSet=all, field=displacement, result=U, name=displacement

*output, type=ensight, name=esExport300
>>configuration, overwrite=yes
>>perNode, fieldOutput=displacement

*step, solver=theSolver
maxInc=0.02, minInc=1e-7, maxNumInc=1000, maxIter=40, criticalIter=8, stepLength=1.0
>>dirichlet, name=gripLeft,  nSet=gripClampLeft,  field=displacement, 1=0.0,   2=0.0
>>dirichlet, name=gripRight, nSet=gripClampRight, field=displacement, 1=225.0, 2=0.0
>>dirichlet, name=z0,        nSet=z0Layer,        field=displacement, 3=0.0
