*node
1, -57.50000000, -12.50000000
2, -57.50000000, 12.50000000
3, -47.50000000, -12.50000000
4, -47.50000000, 12.50000000
5, -42.50000000, -12.50000000
6, -40.33259964, -12.40587044
7, -38.18151855, -12.12419033
8, -36.06296158, -11.65707970
9, -33.99288177, -11.00806046
10, -31.98686028, -10.18202019
11, -30.05999947, -9.18517017
12, -28.78005981, -8.39888000
13, -24.02618980, -5.19506979
14, -23.22175980, -4.71920013
15, -22.30241966, -4.25903988
16, -20.91072083, -3.71294999
17, -19.46871948, -3.31838012
18, -17.99287033, -3.07981992
19, -16.50000000, -3.00000000
20, -17.99287033, 3.07981992
21, -16.50000000, 3.00000000
22, -19.46871948, 3.31838012
23, -20.91072083, 3.71294999
24, -22.30241966, 4.25903988
25, -23.22175980, 4.71920013
26, -24.02618980, 5.19506979
27, -28.78005981, 8.39888000
28, -30.05999947, 9.18517017
29, -31.98686028, 10.18202019
30, -33.99288177, 11.00806046
31, -36.06296158, 11.65707970
32, -38.18151855, 12.12419033
33, -40.33259964, 12.40587044
34, -42.50000000, 12.50000000
35, 16.50000000, -3.00000000
36, 16.50000000, 3.00000000
37, 17.99287033, -3.07981992
38, 19.46871948, -3.31838012
39, 20.91072083, -3.71294999
40, 22.30241966, -4.25903988
41, 23.22175980, -4.71920013
42, 24.02618980, -5.19506979
43, 28.78005981, -8.39888000
44, 30.05999947, -9.18517017
45, 31.98686028, -10.18202019
46, 33.99288177, -11.00806046
47, 36.06296158, -11.65707970
48, 38.18151855, -12.12419033
49, 40.33259964, -12.40587044
50, 42.50000000, -12.50000000
51, 47.50000000, -12.50000000
52, 42.50000000, 12.50000000
53, 47.50000000, 12.50000000
54, 40.33259964, 12.40587044
55, 38.18151855, 12.12419033
56, 36.06296158, 11.65707970
57, 33.99288177, 11.00806046
58, 31.98686028, 10.18202019
59, 30.05999947, 9.18517017
60, 28.78005981, 8.39888000
61, 24.02618980, 5.19506979
62, 23.22175980, 4.71920013
63, 22.30241966, 4.25903988
64, 20.91072083, 3.71294999
65, 19.46871948, 3.31838012
66, 17.99287033, 3.07981992
67, 57.50000000, -12.50000000
68, 57.50000000, 12.50000000
69, -47.50000000, -12.01923077
70, -47.50000000, -11.53846154
71, -47.50000000, -11.05769231
72, -47.50000000, -10.57692308
73, -47.50000000, -10.09615385
74, -47.50000000, -9.61538462
75, -47.50000000, -9.13461538
76, -47.50000000, -8.65384615
77, -47.50000000, -8.17307692
78, -47.50000000, -7.69230769
79, -47.50000000, -7.21153846
80, -47.50000000, -6.73076923
81, -47.50000000, -6.25000000
82, -47.50000000, -5.76923077
83, -47.50000000, -5.28846154
84, -47.50000000, -4.80769231
85, -47.50000000, -4.32692308
86, -47.50000000, -3.84615385
87, -47.50000000, -3.36538462
88, -47.50000000, -2.88461538
89, -47.50000000, -2.40384615
90, -47.50000000, -1.92307692
91, -47.50000000, -1.44230769
92, -47.50000000, -0.96153846
93, -47.50000000, -0.48076923
94, -47.50000000, 0.00000000
95, -47.50000000, 0.48076923
96, -47.50000000, 0.96153846
97, -47.50000000, 1.44230769
98, -47.50000000, 1.92307692
99, -47.50000000, 2.40384615
100, -47.50000000, 2.88461538
101, -47.50000000, 3.36538462
102, -47.50000000, 3.84615385
103, -47.50000000, 4.32692308
104, -47.50000000, 4.80769231
105, -47.50000000, 5.28846154
106, -47.50000000, 5.76923077
107, -47.50000000, 6.25000000
108, -47.50000000, 6.73076923
109, -47.50000000, 7.21153846
110, -47.50000000, 7.69230769
111, -47.50000000, 8.17307692
112, -47.50000000, 8.65384615
113, -47.50000000, 9.13461538
114, -47.50000000, 9.61538462
115, -47.50000000, 10.09615385
116, -47.50000000, 10.57692308
117, -47.50000000, 11.05769231
118, -47.50000000, 11.53846154
119, -47.50000000, 12.01923077
120, -16.50000000, -2.50000000
121, -16.50000000, -2.00000000
122, -16.50000000, -1.50000000
123, -16.50000000, -1.00000000
124, -16.50000000, -0.50000000
125, -16.50000000, 0.00000000
126, -16.50000000, 0.50000000
127, -16.50000000, 1.00000000
128, -16.50000000, 1.50000000
129, -16.50000000, 2.00000000
130, -16.50000000, 2.50000000
131, 16.50000000, -2.50000000
132, 16.50000000, -2.00000000
133, 16.50000000, -1.50000000
134, 16.50000000, -1.00000000
135, 16.50000000, -0.50000000
136, 16.50000000, 0.00000000
137, 16.50000000, 0.50000000
138, 16.50000000, 1.00000000
139, 16.50000000, 1.50000000
140, 16.50000000, 2.00000000
141, 16.50000000, 2.50000000
142, 47.50000000, -12.01923077
143, 47.50000000, -11.53846154
144, 47.50000000, -11.05769231
145, 47.50000000, -10.57692308
146, 47.50000000, -10.09615385
147, 47.50000000, -9.61538462
148, 47.50000000, -9.13461538
149, 47.50000000, -8.65384615
150, 47.50000000, -8.17307692
151, 47.50000000, -7.69230769
152, 47.50000000, -7.21153846
153, 47.50000000, -6.73076923
154, 47.50000000, -6.25000000
155, 47.50000000, -5.76923077
156, 47.50000000, -5.28846154
157, 47.50000000, -4.80769231
158, 47.50000000, -4.32692308
159, 47.50000000, -3.84615385
160, 47.50000000, -3.36538462
161, 47.50000000, -2.88461538
162, 47.50000000, -2.40384615
163, 47.50000000, -1.92307692
164, 47.50000000, -1.44230769
165, 47.50000000, -0.96153846
166, 47.50000000, -0.48076923
167, 47.50000000, 0.00000000
168, 47.50000000, 0.48076923
169, 47.50000000, 0.96153846
170, 47.50000000, 1.44230769
171, 47.50000000, 1.92307692
172, 47.50000000, 2.40384615
173, 47.50000000, 2.88461538
174, 47.50000000, 3.36538462
175, 47.50000000, 3.84615385
176, 47.50000000, 4.32692308
177, 47.50000000, 4.80769231
178, 47.50000000, 5.28846154
179, 47.50000000, 5.76923077
180, 47.50000000, 6.25000000
181, 47.50000000, 6.73076923
182, 47.50000000, 7.21153846
183, 47.50000000, 7.69230769
184, 47.50000000, 8.17307692
185, 47.50000000, 8.65384615
186, 47.50000000, 9.13461538
187, 47.50000000, 9.61538462
188, 47.50000000, 10.09615385
189, 47.50000000, 10.57692308
190, 47.50000000, 11.05769231
191, 47.50000000, 11.53846154
192, 47.50000000, 12.01923077
193, -57.50000000, -12.01923077
194, -57.50000000, -11.53846154
195, -57.50000000, -11.05769231
196, -57.50000000, -10.57692308
197, -57.50000000, -10.09615385
198, -57.50000000, -9.61538462
199, -57.50000000, -9.13461538
200, -57.50000000, -8.65384615
201, -57.50000000, -8.17307692
202, -57.50000000, -7.69230769
203, -57.50000000, -7.21153846
204, -57.50000000, -6.73076923
205, -57.50000000, -6.25000000
206, -57.50000000, -5.76923077
207, -57.50000000, -5.28846154
208, -57.50000000, -4.80769231
209, -57.50000000, -4.32692308
210, -57.50000000, -3.84615385
211, -57.50000000, -3.36538462
212, -57.50000000, -2.88461538
213, -57.50000000, -2.40384615
214, -57.50000000, -1.92307692
215, -57.50000000, -1.44230769
216, -57.50000000, -0.96153846
217, -57.50000000, -0.48076923
218, -57.50000000, 0.00000000
219, -57.50000000, 0.48076923
220, -57.50000000, 0.96153846
221, -57.50000000, 1.44230769
222, -57.50000000, 1.92307692
223, -57.50000000, 2.40384615
224, -57.50000000, 2.88461538
225, -57.50000000, 3.36538462
226, -57.50000000, 3.84615385
227, -57.50000000, 4.32692308
228, -57.50000000, 4.80769231
229, -57.50000000, 5.28846154
230, -57.50000000, 5.76923077
231, -57.50000000, 6.25000000
232, -57.50000000, 6.73076923
233, -57.50000000, 7.21153846
234, -57.50000000, 7.69230769
235, -57.50000000, 8.17307692
236, -57.50000000, 8.65384615
237, -57.50000000, 9.13461538
238, -57.50000000, 9.61538462
239, -57.50000000, 10.09615385
240, -57.50000000, 10.57692308
241, -57.50000000, 11.05769231
242, -57.50000000, 11.53846154
243, -57.50000000, 12.01923077
244, -48.00000000, -12.50000000
245, -48.50000000, -12.50000000
246, -49.00000000, -12.50000000
247, -49.50000000, -12.50000000
248, -50.00000000, -12.50000000
249, -50.50000000, -12.50000000
250, -51.00000000, -12.50000000
251, -51.50000000, -12.50000000
252, -52.00000000, -12.50000000
253, -52.50000000, -12.50000000
254, -53.00000000, -12.50000000
255, -53.50000000, -12.50000000
256, -54.00000000, -12.50000000
257, -54.50000000, -12.50000000
258, -55.00000000, -12.50000000
259, -55.50000000, -12.50000000
260, -56.00000000, -12.50000000
261, -56.50000000, -12.50000000
262, -57.00000000, -12.50000000
263, -57.00000000, 12.50000000
264, -56.50000000, 12.50000000
265, -56.00000000, 12.50000000
266, -55.50000000, 12.50000000
267, -55.00000000, 12.50000000
268, -54.50000000, 12.50000000
269, -54.00000000, 12.50000000
270, -53.50000000, 12.50000000
271, -53.00000000, 12.50000000
272, -52.50000000, 12.50000000
273, -52.00000000, 12.50000000
274, -51.50000000, 12.50000000
275, -51.00000000, 12.50000000
276, -50.50000000, 12.50000000
277, -50.00000000, 12.50000000
278, -49.50000000, 12.50000000
279, -49.00000000, 12.50000000
280, -48.50000000, 12.50000000
281, -48.00000000, 12.50000000
282, -42.91666667, -12.50000000
283, -43.33333333, -12.50000000
284, -43.75000000, -12.50000000
285, -44.16666667, -12.50000000
286, -44.58333333, -12.50000000
287, -45.00000000, -12.50000000
288, -45.41666667, -12.50000000
289, -45.83333333, -12.50000000
290, -46.25000000, -12.50000000
291, -46.66666667, -12.50000000
292, -47.08333333, -12.50000000
293, -40.60352468, -12.41763663
294, -40.87444973, -12.42940283
295, -41.14537477, -12.44116902
296, -41.41629982, -12.45293522
297, -41.68722486, -12.46470141
298, -41.95814991, -12.47646761
299, -42.22907495, -12.48823380
300, -38.45040369, -12.15940034
301, -38.71928883, -12.19461036
302, -38.98817396, -12.22982037
303, -39.25705910, -12.26503038
304, -39.52594423, -12.30024040
305, -39.79482937, -12.33545041
306, -40.06371450, -12.37066042
307, -36.32778120, -11.71546853
308, -36.59260082, -11.77385736
309, -36.85742044, -11.83224618
310, -37.12224007, -11.89063501
311, -37.38705969, -11.94902384
312, -37.65187931, -12.00741267
313, -37.91669893, -12.06580150
314, -34.25164175, -11.08918786
315, -34.51040173, -11.17031527
316, -34.76916170, -11.25144267
317, -35.02792168, -11.33257008
318, -35.28668165, -11.41369748
319, -35.54544163, -11.49482489
320, -35.80420160, -11.57595229
321, -32.23761296, -10.28527522
322, -32.48836565, -10.38853025
323, -32.73911834, -10.49178529
324, -32.98987103, -10.59504032
325, -33.24062371, -10.69829535
326, -33.49137640, -10.80155039
327, -33.74212909, -10.90480542
328, -30.30085707, -9.30977643
329, -30.54171467, -9.43438268
330, -30.78257227, -9.55898893
331, -31.02342987, -9.68359518
332, -31.26428747, -9.80820143
333, -31.50514507, -9.93280768
334, -31.74600267, -10.05741394
335, -29.10004473, -8.59545255
336, -29.42002964, -8.79202509
337, -29.74001455, -8.98859763
338, -24.42234564, -5.46205397
339, -24.81850147, -5.72903816
340, -25.21465731, -5.99602234
341, -25.61081314, -6.26300653
342, -26.00696898, -6.52999071
343, -26.40312481, -6.79697490
344, -26.79928064, -7.06395908
345, -27.19543648, -7.33094327
346, -27.59159231, -7.59792745
347, -27.98774815, -7.86491164
348, -28.38390398, -8.13189582
349, -23.42286730, -4.83816755
350, -23.62397480, -4.95713496
351, -23.82508230, -5.07610238
352, -22.53225470, -4.37407994
353, -22.76208973, -4.48912001
354, -22.99192476, -4.60416007
355, -21.25864553, -3.84947246
356, -21.60657024, -3.98599494
357, -21.95449495, -4.12251741
358, -19.82921982, -3.41702259
359, -20.18972015, -3.51566505
360, -20.55022049, -3.61430752
361, -18.36183262, -3.13945997
362, -18.73079491, -3.19910002
363, -19.09975719, -3.25874007
364, -16.87321758, -3.01995498
365, -17.24643517, -3.03990996
366, -17.61965275, -3.05986494
367, -17.61965275, 3.05986494
368, -17.24643517, 3.03990996
369, -16.87321758, 3.01995498
370, -19.09975719, 3.25874007
371, -18.73079491, 3.19910002
372, -18.36183262, 3.13945997
373, -20.55022049, 3.61430752
374, -20.18972015, 3.51566505
375, -19.82921982, 3.41702259
376, -21.95449495, 4.12251741
377, -21.60657024, 3.98599494
378, -21.25864553, 3.84947246
379, -22.99192476, 4.60416007
380, -22.76208973, 4.48912001
381, -22.53225470, 4.37407994
382, -23.82508230, 5.07610238
383, -23.62397480, 4.95713496
384, -23.42286730, 4.83816755
385, -28.38390398, 8.13189582
386, -27.98774815, 7.86491164
387, -27.59159231, 7.59792745
388, -27.19543648, 7.33094327
389, -26.79928064, 7.06395908
390, -26.40312481, 6.79697490
391, -26.00696898, 6.52999071
392, -25.61081314, 6.26300653
393, -25.21465731, 5.99602234
394, -24.81850147, 5.72903816
395, -24.42234564, 5.46205397
396, -29.74001455, 8.98859763
397, -29.42002964, 8.79202509
398, -29.10004473, 8.59545255
399, -31.74600267, 10.05741394
400, -31.50514507, 9.93280768
401, -31.26428747, 9.80820143
402, -31.02342987, 9.68359518
403, -30.78257227, 9.55898893
404, -30.54171467, 9.43438268
405, -30.30085707, 9.30977643
406, -33.74212909, 10.90480542
407, -33.49137640, 10.80155039
408, -33.24062371, 10.69829535
409, -32.98987103, 10.59504032
410, -32.73911834, 10.49178529
411, -32.48836565, 10.38853025
412, -32.23761296, 10.28527522
413, -35.80420160, 11.57595229
414, -35.54544163, 11.49482489
415, -35.28668165, 11.41369748
416, -35.02792168, 11.33257008
417, -34.76916170, 11.25144267
418, -34.51040173, 11.17031527
419, -34.25164175, 11.08918786
420, -37.91669893, 12.06580150
421, -37.65187931, 12.00741267
422, -37.38705969, 11.94902384
423, -37.12224007, 11.89063501
424, -36.85742044, 11.83224618
425, -36.59260082, 11.77385736
426, -36.32778120, 11.71546853
427, -40.06371450, 12.37066042
428, -39.79482937, 12.33545041
429, -39.52594423, 12.30024040
430, -39.25705910, 12.26503038
431, -38.98817396, 12.22982037
432, -38.71928883, 12.19461036
433, -38.45040369, 12.15940034
434, -42.22907495, 12.48823380
435, -41.95814991, 12.47646761
436, -41.68722486, 12.46470141
437, -41.41629982, 12.45293522
438, -41.14537477, 12.44116902
439, -40.87444973, 12.42940283
440, -40.60352468, 12.41763663
441, -47.08333333, 12.50000000
442, -46.66666667, 12.50000000
443, -46.25000000, 12.50000000
444, -45.83333333, 12.50000000
445, -45.41666667, 12.50000000
446, -45.00000000, 12.50000000
447, -44.58333333, 12.50000000
448, -44.16666667, 12.50000000
449, -43.75000000, 12.50000000
450, -43.33333333, 12.50000000
451, -42.91666667, 12.50000000
452, 16.01470588, -3.00000000
453, 15.52941176, -3.00000000
454, 15.04411765, -3.00000000
455, 14.55882353, -3.00000000
456, 14.07352941, -3.00000000
457, 13.58823529, -3.00000000
458, 13.10294118, -3.00000000
459, 12.61764706, -3.00000000
460, 12.13235294, -3.00000000
461, 11.64705882, -3.00000000
462, 11.16176471, -3.00000000
463, 10.67647059, -3.00000000
464, 10.19117647, -3.00000000
465, 9.70588235, -3.00000000
466, 9.22058824, -3.00000000
467, 8.73529412, -3.00000000
468, 8.25000000, -3.00000000
469, 7.76470588, -3.00000000
470, 7.27941176, -3.00000000
471, 6.79411765, -3.00000000
472, 6.30882353, -3.00000000
473, 5.82352941, -3.00000000
474, 5.33823529, -3.00000000
475, 4.85294118, -3.00000000
476, 4.36764706, -3.00000000
477, 3.88235294, -3.00000000
478, 3.39705882, -3.00000000
479, 2.91176471, -3.00000000
480, 2.42647059, -3.00000000
481, 1.94117647, -3.00000000
482, 1.45588235, -3.00000000
483, 0.97058824, -3.00000000
484, 0.48529412, -3.00000000
485, 0.00000000, -3.00000000
486, -0.48529412, -3.00000000
487, -0.97058824, -3.00000000
488, -1.45588235, -3.00000000
489, -1.94117647, -3.00000000
490, -2.42647059, -3.00000000
491, -2.91176471, -3.00000000
492, -3.39705882, -3.00000000
493, -3.88235294, -3.00000000
494, -4.36764706, -3.00000000
495, -4.85294118, -3.00000000
496, -5.33823529, -3.00000000
497, -5.82352941, -3.00000000
498, -6.30882353, -3.00000000
499, -6.79411765, -3.00000000
500, -7.27941176, -3.00000000
501, -7.76470588, -3.00000000
502, -8.25000000, -3.00000000
503, -8.73529412, -3.00000000
504, -9.22058824, -3.00000000
505, -9.70588235, -3.00000000
506, -10.19117647, -3.00000000
507, -10.67647059, -3.00000000
508, -11.16176471, -3.00000000
509, -11.64705882, -3.00000000
510, -12.13235294, -3.00000000
511, -12.61764706, -3.00000000
512, -13.10294118, -3.00000000
513, -13.58823529, -3.00000000
514, -14.07352941, -3.00000000
515, -14.55882353, -3.00000000
516, -15.04411765, -3.00000000
517, -15.52941176, -3.00000000
518, -16.01470588, -3.00000000
519, -16.01470588, 3.00000000
520, -15.52941176, 3.00000000
521, -15.04411765, 3.00000000
522, -14.55882353, 3.00000000
523, -14.07352941, 3.00000000
524, -13.58823529, 3.00000000
525, -13.10294118, 3.00000000
526, -12.61764706, 3.00000000
527, -12.13235294, 3.00000000
528, -11.64705882, 3.00000000
529, -11.16176471, 3.00000000
530, -10.67647059, 3.00000000
531, -10.19117647, 3.00000000
532, -9.70588235, 3.00000000
533, -9.22058824, 3.00000000
534, -8.73529412, 3.00000000
535, -8.25000000, 3.00000000
536, -7.76470588, 3.00000000
537, -7.27941176, 3.00000000
538, -6.79411765, 3.00000000
539, -6.30882353, 3.00000000
540, -5.82352941, 3.00000000
541, -5.33823529, 3.00000000
542, -4.85294118, 3.00000000
543, -4.36764706, 3.00000000
544, -3.88235294, 3.00000000
545, -3.39705882, 3.00000000
546, -2.91176471, 3.00000000
547, -2.42647059, 3.00000000
548, -1.94117647, 3.00000000
549, -1.45588235, 3.00000000
550, -0.97058824, 3.00000000
551, -0.48529412, 3.00000000
552, 0.00000000, 3.00000000
553, 0.48529412, 3.00000000
554, 0.97058824, 3.00000000
555, 1.45588235, 3.00000000
556, 1.94117647, 3.00000000
557, 2.42647059, 3.00000000
558, 2.91176471, 3.00000000
559, 3.39705882, 3.00000000
560, 3.88235294, 3.00000000
561, 4.36764706, 3.00000000
562, 4.85294118, 3.00000000
563, 5.33823529, 3.00000000
564, 5.82352941, 3.00000000
565, 6.30882353, 3.00000000
566, 6.79411765, 3.00000000
567, 7.27941176, 3.00000000
568, 7.76470588, 3.00000000
569, 8.25000000, 3.00000000
570, 8.73529412, 3.00000000
571, 9.22058824, 3.00000000
572, 9.70588235, 3.00000000
573, 10.19117647, 3.00000000
574, 10.67647059, 3.00000000
575, 11.16176471, 3.00000000
576, 11.64705882, 3.00000000
577, 12.13235294, 3.00000000
578, 12.61764706, 3.00000000
579, 13.10294118, 3.00000000
580, 13.58823529, 3.00000000
581, 14.07352941, 3.00000000
582, 14.55882353, 3.00000000
583, 15.04411765, 3.00000000
584, 15.52941176, 3.00000000
585, 16.01470588, 3.00000000
586, 17.61965275, -3.05986494
587, 17.24643517, -3.03990996
588, 16.87321758, -3.01995498
589, 19.09975719, -3.25874007
590, 18.73079491, -3.19910002
591, 18.36183262, -3.13945997
592, 20.55022049, -3.61430752
593, 20.18972015, -3.51566505
594, 19.82921982, -3.41702259
595, 21.95449495, -4.12251741
596, 21.60657024, -3.98599494
597, 21.25864553, -3.84947246
598, 22.99192476, -4.60416007
599, 22.76208973, -4.48912001
600, 22.53225470, -4.37407994
601, 23.82508230, -5.07610238
602, 23.62397480, -4.95713496
603, 23.42286730, -4.83816755
604, 28.38390398, -8.13189582
605, 27.98774815, -7.86491164
606, 27.59159231, -7.59792745
607, 27.19543648, -7.33094327
608, 26.79928064, -7.06395908
609, 26.40312481, -6.79697490
610, 26.00696898, -6.52999071
611, 25.61081314, -6.26300653
612, 25.21465731, -5.99602234
613, 24.81850147, -5.72903816
614, 24.42234564, -5.46205397
615, 29.74001455, -8.98859763
616, 29.42002964, -8.79202509
617, 29.10004473, -8.59545255
618, 31.74600267, -10.05741394
619, 31.50514507, -9.93280768
620, 31.26428747, -9.80820143
621, 31.02342987, -9.68359518
622, 30.78257227, -9.55898893
623, 30.54171467, -9.43438268
624, 30.30085707, -9.30977643
625, 33.74212909, -10.90480542
626, 33.49137640, -10.80155039
627, 33.24062371, -10.69829535
628, 32.98987103, -10.59504032
629, 32.73911834, -10.49178529
630, 32.48836565, -10.38853025
631, 32.23761296, -10.28527522
632, 35.80420160, -11.57595229
633, 35.54544163, -11.49482489
634, 35.28668165, -11.41369748
635, 35.02792168, -11.33257008
636, 34.76916170, -11.25144267
637, 34.51040173, -11.17031527
638, 34.25164175, -11.08918786
639, 37.91669893, -12.06580150
640, 37.65187931, -12.00741267
641, 37.38705969, -11.94902384
642, 37.12224007, -11.89063501
643, 36.85742044, -11.83224618
644, 36.59260082, -11.77385736
645, 36.32778120, -11.71546853
646, 40.06371450, -12.37066042
647, 39.79482937, -12.33545041
648, 39.52594423, -12.30024040
649, 39.25705910, -12.26503038
650, 38.98817396, -12.22982037
651, 38.71928883, -12.19461036
652, 38.45040369, -12.15940034
653, 42.22907495, -12.48823380
654, 41.95814991, -12.47646761
655, 41.68722486, -12.46470141
656, 41.41629982, -12.45293522
657, 41.14537477, -12.44116902
658, 40.87444973, -12.42940283
659, 40.60352468, -12.41763663
660, 47.08333333, -12.50000000
661, 46.66666667, -12.50000000
662, 46.25000000, -12.50000000
663, 45.83333333, -12.50000000
664, 45.41666667, -12.50000000
665, 45.00000000, -12.50000000
666, 44.58333333, -12.50000000
667, 44.16666667, -12.50000000
668, 43.75000000, -12.50000000
669, 43.33333333, -12.50000000
670, 42.91666667, -12.50000000
671, 42.91666667, 12.50000000
672, 43.33333333, 12.50000000
673, 43.75000000, 12.50000000
674, 44.16666667, 12.50000000
675, 44.58333333, 12.50000000
676, 45.00000000, 12.50000000
677, 45.41666667, 12.50000000
678, 45.83333333, 12.50000000
679, 46.25000000, 12.50000000
680, 46.66666667, 12.50000000
681, 47.08333333, 12.50000000
682, 40.60352468, 12.41763663
683, 40.87444973, 12.42940283
684, 41.14537477, 12.44116902
685, 41.41629982, 12.45293522
686, 41.68722486, 12.46470141
687, 41.95814991, 12.47646761
688, 42.22907495, 12.48823380
689, 38.45040369, 12.15940034
690, 38.71928883, 12.19461036
691, 38.98817396, 12.22982037
692, 39.25705910, 12.26503038
693, 39.52594423, 12.30024040
694, 39.79482937, 12.33545041
695, 40.06371450, 12.37066042
696, 36.32778120, 11.71546853
697, 36.59260082, 11.77385736
698, 36.85742044, 11.83224618
699, 37.12224007, 11.89063501
700, 37.38705969, 11.94902384
701, 37.65187931, 12.00741267
702, 37.91669893, 12.06580150
703, 34.25164175, 11.08918786
704, 34.51040173, 11.17031527
705, 34.76916170, 11.25144267
706, 35.02792168, 11.33257008
707, 35.28668165, 11.41369748
708, 35.54544163, 11.49482489
709, 35.80420160, 11.57595229
710, 32.23761296, 10.28527522
711, 32.48836565, 10.38853025
712, 32.73911834, 10.49178529
713, 32.98987103, 10.59504032
714, 33.24062371, 10.69829535
715, 33.49137640, 10.80155039
716, 33.74212909, 10.90480542
717, 30.30085707, 9.30977643
718, 30.54171467, 9.43438268
719, 30.78257227, 9.55898893
720, 31.02342987, 9.68359518
721, 31.26428747, 9.80820143
722, 31.50514507, 9.93280768
723, 31.74600267, 10.05741394
724, 29.10004473, 8.59545255
725, 29.42002964, 8.79202509
726, 29.74001455, 8.98859763
727, 24.42234564, 5.46205397
728, 24.81850147, 5.72903816
729, 25.21465731, 5.99602234
730, 25.61081314, 6.26300653
731, 26.00696898, 6.52999071
732, 26.40312481, 6.79697490
733, 26.79928064, 7.06395908
734, 27.19543648, 7.33094327
735, 27.59159231, 7.59792745
736, 27.98774815, 7.86491164
737, 28.38390398, 8.13189582
738, 23.42286730, 4.83816755
739, 23.62397480, 4.95713496
740, 23.82508230, 5.07610238
741, 22.53225470, 4.37407994
742, 22.76208973, 4.48912001
743, 22.99192476, 4.60416007
744, 21.25864553, 3.84947246
745, 21.60657024, 3.98599494
746, 21.95449495, 4.12251741
747, 19.82921982, 3.41702259
748, 20.18972015, 3.51566505
749, 20.55022049, 3.61430752
750, 18.36183262, 3.13945997
751, 18.73079491, 3.19910002
752, 19.09975719, 3.25874007
753, 16.87321758, 3.01995498
754, 17.24643517, 3.03990996
755, 17.61965275, 3.05986494
756, 57.00000000, -12.50000000
757, 56.50000000, -12.50000000
758, 56.00000000, -12.50000000
759, 55.50000000, -12.50000000
760, 55.00000000, -12.50000000
761, 54.50000000, -12.50000000
762, 54.00000000, -12.50000000
763, 53.50000000, -12.50000000
764, 53.00000000, -12.50000000
765, 52.50000000, -12.50000000
766, 52.00000000, -12.50000000
767, 51.50000000, -12.50000000
768, 51.00000000, -12.50000000
769, 50.50000000, -12.50000000
770, 50.00000000, -12.50000000
771, 49.50000000, -12.50000000
772, 49.00000000, -12.50000000
773, 48.50000000, -12.50000000
774, 48.00000000, -12.50000000
775, 57.50000000, 12.01923077
776, 57.50000000, 11.53846154
777, 57.50000000, 11.05769231
778, 57.50000000, 10.57692308
779, 57.50000000, 10.09615385
780, 57.50000000, 9.61538462
781, 57.50000000, 9.13461538
782, 57.50000000, 8.65384615
783, 57.50000000, 8.17307692
784, 57.50000000, 7.69230769
785, 57.50000000, 7.21153846
786, 57.50000000, 6.73076923
787, 57.50000000, 6.25000000
788, 57.50000000, 5.76923077
789, 57.50000000, 5.28846154
790, 57.50000000, 4.80769231
791, 57.50000000, 4.32692308
792, 57.50000000, 3.84615385
793, 57.50000000, 3.36538462
794, 57.50000000, 2.88461538
795, 57.50000000, 2.40384615
796, 57.50000000, 1.92307692
797, 57.50000000, 1.44230769
798, 57.50000000, 0.96153846
799, 57.50000000, 0.48076923
800, 57.50000000, 0.00000000
801, 57.50000000, -0.48076923
802, 57.50000000, -0.96153846
803, 57.50000000, -1.44230769
804, 57.50000000, -1.92307692
805, 57.50000000, -2.40384615
806, 57.50000000, -2.88461538
807, 57.50000000, -3.36538462
808, 57.50000000, -3.84615385
809, 57.50000000, -4.32692308
810, 57.50000000, -4.80769231
811, 57.50000000, -5.28846154
812, 57.50000000, -5.76923077
813, 57.50000000, -6.25000000
814, 57.50000000, -6.73076923
815, 57.50000000, -7.21153846
816, 57.50000000, -7.69230769
817, 57.50000000, -8.17307692
818, 57.50000000, -8.65384615
819, 57.50000000, -9.13461538
820, 57.50000000, -9.61538462
821, 57.50000000, -10.09615385
822, 57.50000000, -10.57692308
823, 57.50000000, -11.05769231
824, 57.50000000, -11.53846154
825, 57.50000000, -12.01923077
826, 48.00000000, 12.50000000
827, 48.50000000, 12.50000000
828, 49.00000000, 12.50000000
829, 49.50000000, 12.50000000
830, 50.00000000, 12.50000000
831, 50.50000000, 12.50000000
832, 51.00000000, 12.50000000
833, 51.50000000, 12.50000000
834, 52.00000000, 12.50000000
835, 52.50000000, 12.50000000
836, 53.00000000, 12.50000000
837, 53.50000000, 12.50000000
838, 54.00000000, 12.50000000
839, 54.50000000, 12.50000000
840, 55.00000000, 12.50000000
841, 55.50000000, 12.50000000
842, 56.00000000, 12.50000000
843, 56.50000000, 12.50000000
844, 57.00000000, 12.50000000
845, -49.48640815, 4.80394077
846, -49.48357072, -4.79555555
847, -49.48338059, 0.96172306
848, -55.51667318, 2.88272521
849, -55.50916602, -8.63646301
850, -55.51336492, -4.79642296
851, -55.51440653, 6.72259946
852, -53.50398181, 10.56510605
853, -55.51049695, 8.64388401
854, -53.50230197, -10.55815436
855, -51.49572477, -10.55857536
856, -49.48979619, -8.63676675
857, -49.49495124, 10.56952649
858, -49.48166180, -0.95909198
859, -55.51338991, -2.87866349
860, -55.51380846, -0.95934157
861, -55.50485987, -10.56543140
862, -55.50534733, 10.56963436
863, -49.49423751, -10.56591229
864, -49.49061885, 8.64417201
865, -53.50563864, -4.78885887
866, -51.48993194, 0.96180348
867, -53.50475173, -8.62602376
868, -51.49328914, -8.62635857
869, -51.49517566, 8.63839392
870, -53.50939528, 6.71829476
871, -51.49780559, 10.56537051
872, -49.48175979, -2.87805510
873, -55.51535575, 0.96156058
874, -49.48579364, 2.88313476
875, -55.51574156, 4.80302330
876, -53.50399779, -2.87442704
877, -55.51156597, -6.71475026
878, -49.48714908, -6.71420289
879, -49.48800599, 6.72365890
880, -53.50677532, 8.63830502
881, -51.48565743, -2.87401440
882, -53.50871523, 0.96169398
883, -51.48848189, -4.78830372
884, -51.49392636, 6.71889638
885, -53.50522253, -0.95767897
886, -51.48651699, -0.95749446
887, -51.49369624, 4.80114909
888, -53.51083464, 2.88170863
889, -51.49299725, 2.88195941
890, -53.51059478, 4.80056809
891, -51.49191172, -6.70440056
892, -53.50612674, -6.70475085
893, -53.50105174, -11.52855108
894, -51.49782302, -11.52876948
895, -52.49899257, -10.55796427
896, -52.49944129, -11.52859824
897, -55.51217332, 7.68303383
898, -56.50608607, 8.64871614
899, -56.50838591, 6.72652859
900, -56.50696362, 7.68754948
901, -51.48841704, 0.00193249
902, -50.48180275, -0.95807708
903, -49.48323035, 0.00118328
904, -50.48461875, 0.96181259
905, -50.48397917, 0.00168852
906, -55.51275722, -1.91923085
907, -56.50838528, -0.96039038
908, -56.50821932, -2.88152960
909, -56.50767629, -1.92107194
910, -48.49165802, 4.80575509
911, -49.48696707, 3.84365306
912, -48.49145440, 2.88385231
913, -48.49220961, 3.84486167
914, -49.48570195, 1.92244113
915, -48.49050114, 0.96164820
916, -48.49153609, 1.92275430
917, -54.51072951, -2.87618101
918, -53.50387782, -1.91644766
919, -54.51152305, -0.95833954
920, -54.51012663, -1.91757361
921, -48.48945490, -0.96024594
922, -48.49037470, 0.00063224
923, -49.48258839, -1.91881027
924, -48.48952348, -2.88117723
925, -48.49001464, -1.92084031
926, -55.51352808, 0.00102699
927, -56.50911906, 0.96154825
928, -56.50810630, 0.00053428
929, -49.48780909, 5.76391435
930, -48.49288679, 6.72708818
931, -48.49277710, 5.76649270
932, -56.50997663, 2.88360769
933, -55.51550145, 3.84303200
934, -56.50921193, 4.80521552
935, -56.50900623, 3.84450027
936, -50.48754333, 2.88246087
937, -51.49229161, 1.92191189
938, -50.48700377, 1.92215308
939, -48.49430274, 8.64884143
940, -49.48985456, 7.68374240
941, -48.49399986, 7.68792947
942, -52.50202686, 2.88168188
943, -53.50971194, 1.92175587
944, -52.49941667, 0.96179066
945, -52.50086383, 1.92177915
946, -53.50645988, 0.00183258
947, -52.49568416, -0.95730315
948, -52.49749135, 0.00203836
949, -55.51525978, 1.92219430
950, -56.50895423, 1.92260598
951, -55.50999207, -7.67520523
952, -56.50692321, -6.72253396
953, -56.50537751, -8.64496710
954, -56.50581469, -7.68360115
955, -55.51190566, -5.75559151
956, -56.50803464, -4.80192841
957, -56.50702567, -5.76223745
958, -55.51236083, -3.83767636
959, -56.50756186, -3.84180401
960, -55.51433132, 5.76290645
961, -56.50832588, 5.76592618
962, -54.51105313, -4.79217370
963, -53.50418015, -3.83187554
964, -54.51013064, -3.83440197
965, -49.48320591, -3.83693194
966, -48.49049651, -4.80139162
967, -48.49043783, -3.84138296
968, -54.51363401, 0.96164338
969, -54.51535835, 2.88206885
970, -54.51411827, 1.92191116
971, -54.51182094, 0.00151501
972, -51.48631941, -1.91615255
973, -50.48199007, -2.87559899
974, -50.48256282, -1.91717284
975, -50.48845326, 4.80234177
976, -51.49403381, 3.84174864
977, -50.48876774, 3.84256046
978, -52.49456830, -2.87369941
979, -52.49496390, -1.91591102
980, -52.49891919, -6.70358091
981, -53.50535732, -7.66487177
982, -52.49888667, -8.62547158
983, -51.49290944, -7.66504196
984, -52.49905267, -7.66430916
985, -49.48612508, -5.75480811
986, -48.49241548, -6.72218788
987, -48.49193736, -5.76180703
988, -54.51493610, 4.80148300
989, -53.50967920, 5.75953620
990, -54.51330842, 6.72011805
991, -54.51361835, 5.76091211
992, -53.51016286, 3.84137737
993, -54.51457745, 3.84197935
994, -52.50212498, 4.80055883
995, -52.50215542, 3.84133353
996, -50.48949414, 6.72099267
997, -51.49431156, 5.76020534
998, -50.48950923, 5.76183189
999, -51.48739341, -3.83137094
1000, -50.48442489, -4.79140899
1001, -50.48360339, -3.83372094
1002, -52.49690940, -4.78789148
1003, -52.49565886, -3.83108242
1004, -52.50166858, 6.71818970
1005, -52.50197957, 5.75954628
1006, -48.49394553, -8.64499813
1007, -49.48913921, -7.67520394
1008, -48.49362674, -7.68352257
1009, -53.50204780, 11.53205337
1010, -52.50094718, 10.56508585
1011, -51.49899310, 11.53232273
1012, -52.50054522, 11.53219542
1013, -51.49475146, 7.67833789
1014, -52.50115696, 8.63801323
1015, -53.50774412, 7.67814911
1016, -52.50131069, 7.67793168
1017, -53.50567863, -5.74694396
1018, -51.49083434, -5.74646270
1019, -52.49810969, -5.74591206
1020, -56.50296110, -10.57103642
1021, -55.50671741, -9.60042602
1022, -56.50395593, -9.60780335
1023, -49.49218803, -9.60086112
1024, -48.49676023, -10.57137813
1025, -48.49554186, -9.60802150
1026, -55.50753641, 9.60635847
1027, -56.50303589, 10.57327927
1028, -56.50433777, 9.61082670
1029, -55.50226603, -11.53247636
1030, -56.50135440, -11.53544701
1031, -49.49721323, -11.53274592
1032, -48.49843356, -11.53559478
1033, -55.50256480, 11.53457004
1034, -56.50144992, 11.53653113
1035, -54.50523508, 10.56730488
1036, -54.50256674, 11.53332853
1037, -50.49437485, -10.56208712
1038, -50.49722995, -11.53074070
1039, -54.50420590, -10.56157771
1040, -54.50197542, -11.53047068
1041, -50.49560922, 10.56731763
1042, -49.49764573, 11.53457363
1043, -50.49799264, 11.53341385
1044, -48.49693796, 10.57313266
1045, -48.49857790, 11.53647105
1046, -49.49317190, 9.60649933
1047, -48.49590753, 9.61083358
1048, -54.50973778, 8.64089305
1049, -53.50505260, 9.60134840
1050, -54.50719330, 9.60364928
1051, -50.48811717, -6.70890894
1052, -50.48687765, -5.75008912
1053, -50.49051693, -8.63124775
1054, -51.49471644, -9.59210697
1055, -50.49258916, -9.59613237
1056, -54.50795058, -8.63087759
1057, -53.50322880, -9.59172712
1058, -54.50585200, -9.59565566
1059, -54.51122003, 7.68031321
1060, -50.49192707, 8.64115203
1061, -50.49105184, 7.68085402
1062, -54.51005614, -6.70937505
1063, -54.51018585, -5.75076942
1064, -54.50874844, -7.66967631
1065, -50.48977601, -7.66965874
1066, -51.49674516, 9.60146322
1067, -50.49405595, 9.60377362
1068, -52.49892246, -9.59122814
1069, -52.50099551, 9.60108871
1070, -53.00064727, -10.55805931
1071, -52.49921693, -11.04328126
1072, -53.00024651, -11.52857466
1073, -53.50167685, -11.04335272
1074, -53.00044689, -11.04331699
1075, -53.50052587, -12.01427554
1076, -52.49972064, -12.01429912
1077, -53.00012326, -12.01428733
1078, -51.99863216, -11.52868386
1079, -51.49891151, -12.01438474
1080, -51.99931608, -12.01434193
1081, -51.49677389, -11.04367242
1082, -51.99735867, -10.55826982
1083, -51.99799541, -11.04347684
1084, -56.01139622, 6.72456402
1085, -56.50767476, 7.20703904
1086, -56.00956847, 7.68529166
1087, -55.51328993, 7.20281664
1088, -56.01048234, 7.20492784
1089, -55.51133514, 8.16345892
1090, -56.50652484, 8.16813281
1091, -56.00829151, 8.64630008
1092, -56.00892999, 8.16579587
1093, -57.00304303, 8.65128115
1094, -57.00348181, 7.68992859
1095, -57.00326242, 8.17060487
1096, -57.00419295, 6.72864891
1097, -57.00383738, 7.20928875
1098, -50.98727535, 0.96180804
1099, -50.48429896, 0.48175055
1100, -50.98619811, 0.00181051
1101, -51.48917449, 0.48186799
1102, -50.98673673, 0.48180927
1103, -51.48746702, -0.47778098
1104, -50.48289096, -0.47819428
1105, -50.98415987, -0.95778577
1106, -50.98517899, -0.47798763
1107, -49.98173228, -0.95858453
1108, -49.98360476, 0.00143590
1109, -49.48244608, -0.47895435
1110, -49.98266852, -0.47857431
1111, -49.48330547, 0.48145317
1112, -49.98399967, 0.96176783
1113, -49.98380222, 0.48160186
1114, -56.01080461, -2.88009655
1115, -56.50794780, -2.40130077
1116, -56.01021675, -1.92015139
1117, -55.51307356, -2.39894717
1118, -56.01051068, -2.40012397
1119, -55.51328284, -1.43928621
1120, -56.50803079, -1.44073116
1121, -56.01109687, -0.95986598
1122, -56.01065681, -1.44000868
1123, -57.00419264, -0.96096442
1124, -57.00383815, -1.92207443
1125, -57.00401539, -1.44151942
1126, -57.00410966, -2.88307249
1127, -57.00397390, -2.40257346
1128, -47.99610480, 3.84550776
1129, -48.49193381, 4.32530838
1130, -47.99582901, 4.80672370
1131, -47.99596691, 4.32611573
1132, -48.98903308, 4.80484793
1133, -48.98958834, 3.84425736
1134, -49.48668761, 4.32379691
1135, -48.98931071, 4.32455265
1136, -49.48638036, 3.36339391
1137, -48.49183200, 3.36435699
1138, -48.98862402, 2.88349353
1139, -48.98910618, 3.36387545
1140, -47.99572720, 2.88423385
1141, -47.99591600, 3.36487080
1142, -48.49149525, 2.40330331
1143, -48.98861902, 1.92259772
1144, -49.48574780, 2.40278794
1145, -48.98862152, 2.40304562
1146, -49.48454127, 1.44208210
1147, -48.49101861, 1.44220125
1148, -48.98694087, 0.96168563
1149, -48.98777994, 1.44214167
1150, -47.99525057, 0.96159333
1151, -47.99576804, 1.92291561
1152, -47.99550931, 1.44225447
1153, -47.99574762, 2.40357473
1154, -55.01144192, -1.91840223
1155, -54.51042807, -2.39687731
1156, -55.01205971, -2.87742225
1157, -55.01175082, -2.39791224
1158, -54.00736365, -2.87530402
1159, -54.00700223, -1.91701064
1160, -53.50393780, -2.39543735
1161, -54.00718294, -2.39615733
1162, -53.50455018, -1.43706332
1163, -54.51082484, -1.43795658
1164, -54.00837279, -0.95800925
1165, -54.00768751, -1.43750995
1166, -55.01266575, -0.95884056
1167, -55.01205384, -1.43862140
1168, -48.98680253, 0.00090776
1169, -48.48991480, -0.47980685
1170, -48.98555835, -0.95966896
1171, -48.98618044, -0.47938060
1172, -47.99472745, -0.96089220
1173, -47.99518735, 0.00031612
1174, -47.99495740, -0.48028804
1175, -48.49043792, 0.48114022
1176, -47.99521896, 0.48095473
1177, -48.98687170, 0.48129670
1178, -47.99500732, -1.92195862
1179, -48.48973477, -1.44054312
1180, -47.99486738, -1.44142541
1181, -48.98630151, -1.91982529
1182, -49.48212510, -1.43895113
1183, -48.98592993, -1.43974712
1184, -49.48217409, -2.39843269
1185, -48.48976906, -2.40100877
1186, -48.98564164, -2.87961616
1187, -48.98597158, -2.39972073
1188, -47.99476174, -2.88289631
1189, -47.99488453, -2.40242746
1190, -57.00455953, 0.96154336
1191, -56.50861268, 0.48104127
1192, -57.00405315, 0.00026714
1193, -57.00430634, 0.48090525
1194, -56.50824579, -0.47992805
1195, -57.00412290, -0.48034864
1196, -56.01081719, 0.00078064
1197, -55.51366827, -0.47915729
1198, -56.01095703, -0.47954267
1199, -55.51444191, 0.48129378
1200, -56.01223741, 0.96155441
1201, -56.01152730, 0.48116753
1202, -48.99044639, 6.72537354
1203, -48.49283194, 6.24679044
1204, -48.99029310, 5.76520353
1205, -49.48790754, 6.24378663
1206, -48.99036974, 6.24528853
1207, -49.48710862, 5.28392756
1208, -48.49221756, 5.28612389
1209, -48.98966309, 5.28502573
1210, -47.99638855, 5.76786173
1211, -47.99610878, 5.28729272
1212, -47.99644339, 6.72892870
1213, -47.99641597, 6.24839522
1214, -57.00460597, 4.80645391
1215, -56.50910908, 4.32485790
1216, -57.00450312, 3.84532706
1217, -57.00455454, 4.32589049
1218, -56.50949143, 3.36405398
1219, -57.00498831, 2.88411154
1220, -57.00474572, 3.36471930
1221, -56.01332490, 2.88316645
1222, -56.01225384, 3.84376614
1223, -55.51608732, 3.36287861
1224, -56.01278937, 3.36346629
1225, -55.51562151, 4.32302765
1226, -56.01247675, 4.80411941
1227, -56.01236530, 4.32394277
1228, -49.98635286, 1.92229710
1229, -50.48727355, 2.40230698
1230, -49.98666849, 2.88279781
1231, -49.98651067, 2.40254746
1232, -50.99027029, 2.88221014
1233, -50.98964769, 1.92203249
1234, -51.49264443, 2.40193565
1235, -50.98995899, 2.40212131
1236, -51.49111178, 1.44185769
1237, -50.48581126, 1.44198284
1238, -50.98846152, 1.44192026
1239, -49.98517627, 1.44203247
1240, -47.99699993, 7.69011858
1241, -48.49415130, 8.16838545
1242, -47.99715137, 8.65134379
1243, -47.99707565, 8.17073119
1244, -48.99246079, 8.64650672
1245, -48.99192721, 7.68583593
1246, -49.49023671, 8.16395720
1247, -48.99219400, 8.16617133
1248, -49.48893028, 7.20370065
1249, -48.49344332, 7.20750882
1250, -48.99118680, 7.20560474
1251, -47.99672166, 7.20952364
1252, -51.99467431, 0.96179707
1253, -52.50014025, 1.44178491
1254, -51.99657772, 1.92184552
1255, -51.99562601, 1.44182130
1256, -52.50144535, 2.40173051
1257, -51.99751206, 2.88182064
1258, -51.99704489, 2.40183308
1259, -53.00643075, 2.88169525
1260, -53.00528789, 1.92176751
1261, -53.51027329, 2.40173225
1262, -53.00585932, 2.40173138
1263, -53.50921359, 1.44172493
1264, -53.00406595, 0.96174232
1265, -53.00467692, 1.44175492
1266, -52.49845401, 0.48191451
1267, -53.00197561, 0.00193547
1268, -53.50758755, 0.48176328
1269, -53.00302078, 0.48183890
1270, -53.50584121, -0.47792319
1271, -52.49658775, -0.47763240
1272, -53.00045335, -0.95749106
1273, -53.00121448, -0.47777779
1274, -51.99110058, -0.95739881
1275, -51.99295420, 0.00198543
1276, -51.99202739, -0.47770669
1277, -51.99381425, 0.48189125
1278, -57.00447712, 1.92284145
1279, -56.50903665, 1.44207711
1280, -57.00451832, 1.44219240
1281, -56.01210700, 1.92240014
1282, -55.51530776, 1.44187744
1283, -56.01217221, 1.44197728
1284, -55.51596648, 2.40245976
1285, -56.50946543, 2.40310683
1286, -56.01271595, 2.40278330
1287, -57.00473272, 2.40347649
1288, -56.00727176, -8.64071505
1289, -56.50559610, -8.16428412
1290, -56.00790338, -7.67940319
1291, -55.50957905, -8.15583412
1292, -56.00758757, -8.16005912
1293, -55.51077902, -7.19497774
1294, -56.50636895, -7.20306756
1295, -56.00924459, -6.71864211
1296, -56.00857399, -7.19902265
1297, -57.00346161, -6.72665160
1298, -57.00290735, -7.68795442
1299, -57.00318448, -7.20730301
1300, -57.00268875, -8.64940663
1301, -57.00279805, -8.16868052
1302, -57.00351283, -5.76573411
1303, -56.50697444, -6.24238571
1304, -57.00348722, -6.24619285
1305, -56.00946566, -5.75891448
1306, -55.51173581, -6.23517088
1307, -56.00935513, -6.23877830
1308, -55.51263529, -5.27600724
1309, -56.50753015, -5.28208293
1310, -56.01069978, -4.79917569
1311, -56.01008272, -5.27904508
1312, -57.00401732, -4.80481036
1313, -57.00376508, -5.28527223
1314, -56.50779825, -4.32186621
1315, -56.00996134, -3.83974019
1316, -55.51286287, -4.31704966
1317, -56.01033056, -4.31945794
1318, -55.51287537, -3.35816993
1319, -56.50789059, -3.36166681
1320, -56.01038298, -3.35991837
1321, -57.00378093, -3.84397893
1322, -57.00394529, -3.36352571
1323, -57.00389913, -4.32439464
1324, -55.51436892, 6.24275295
1325, -56.01132860, 5.76441632
1326, -56.50835589, 6.24622738
1327, -56.01136241, 6.24449017
1328, -57.00416294, 5.76757848
1329, -57.00417795, 6.24811369
1330, -56.50876891, 5.28557085
1331, -57.00438445, 5.28701619
1332, -55.51503644, 5.28296487
1333, -56.01190267, 5.28426786
1334, -55.01124573, -3.83603916
1335, -54.51059189, -4.31328783
1336, -55.01220903, -4.79429833
1337, -55.01172738, -4.31516875
1338, -54.00834589, -4.79051628
1339, -54.00715539, -3.83313876
1340, -53.50490940, -4.31036721
1341, -54.00775064, -4.31182752
1342, -53.50408897, -3.35315129
1343, -54.51043008, -3.35529149
1344, -54.00725952, -3.35422139
1345, -55.01165272, -3.35673071
1346, -47.99524826, -4.80454196
1347, -48.49046717, -4.32138729
1348, -47.99521891, -3.84376841
1349, -47.99523359, -4.32415518
1350, -48.48998065, -3.36128010
1351, -47.99499033, -3.36333236
1352, -48.98682187, -3.83915745
1353, -49.48248285, -3.35749352
1354, -48.98623175, -3.35938681
1355, -49.48338832, -4.31624374
1356, -48.98703362, -4.79847358
1357, -48.98692774, -4.31881552
1358, -55.01468902, 1.92205273
1359, -54.51387614, 1.44177727
1360, -55.01449488, 0.96160198
1361, -55.01459195, 1.44182735
1362, -54.01117462, 0.96166868
1363, -54.01191511, 1.92183352
1364, -54.01154486, 1.44175110
1365, -54.51473831, 2.40199001
1366, -54.01309650, 2.88188874
1367, -54.01250580, 2.40186113
1368, -55.01601576, 2.88239703
1369, -55.01535239, 2.40222488
1370, -54.51272747, 0.48157919
1371, -55.01267451, 0.00127100
1372, -55.01358469, 0.48143649
1373, -54.51167199, -0.47841226
1374, -55.01267013, -0.47878478
1375, -54.00914041, 0.00167380
1376, -54.00875660, -0.47816773
1377, -54.01015751, 0.48167124
1378, -49.98187493, -2.87682705
1379, -50.48227644, -2.39638592
1380, -49.98257560, -1.91799156
1381, -49.98222527, -2.39740930
1382, -50.48218279, -1.43762496
1383, -49.98215394, -1.43828804
1384, -50.98444111, -1.91666269
1385, -51.48641820, -1.43682350
1386, -50.98430049, -1.43722423
1387, -51.48598842, -2.39508347
1388, -50.98382375, -2.87480670
1389, -50.98413243, -2.39573470
1390, -49.98786740, 3.84310676
1391, -50.48861050, 4.32245111
1392, -49.98743070, 4.80314127
1393, -49.98764905, 4.32312401
1394, -50.99107475, 4.80174543
1395, -50.99140077, 3.84215455
1396, -51.49386502, 4.32144886
1397, -50.99123776, 4.32194999
1398, -51.49351553, 3.36185402
1399, -50.48815553, 3.36251067
1400, -50.99083553, 3.36218234
1401, -49.98726795, 3.36295229
1402, -51.99011286, -2.87385691
1403, -52.49476610, -2.39480522
1404, -51.99064165, -1.91603178
1405, -51.99037726, -2.39494435
1406, -52.49532403, -1.43660708
1407, -51.99087111, -1.43671529
1408, -52.99942086, -1.91617934
1409, -52.99993710, -1.43683520
1410, -52.99928304, -2.87406323
1411, -52.99935195, -2.39512128
1412, -51.49241058, -7.18472126
1413, -51.99598106, -7.66467556
1414, -52.49898593, -7.18394503
1415, -51.99541545, -6.70399073
1416, -51.99569826, -7.18433315
1417, -53.00252296, -6.70416588
1418, -53.00220500, -7.66459046
1419, -53.50574203, -7.18481131
1420, -53.00236398, -7.18437817
1421, -53.50505453, -8.14544776
1422, -52.49896967, -8.14489037
1423, -53.00181920, -8.62574767
1424, -53.00201210, -8.14516907
1425, -51.99608790, -8.62591507
1426, -51.49309929, -8.14570026
1427, -51.99603448, -8.14529532
1428, -47.99620774, -6.72647856
1429, -48.49217642, -6.24199746
1430, -47.99596868, -5.76551890
1431, -47.99608821, -6.24599873
1432, -48.49121694, -5.28159932
1433, -47.99560847, -5.28503043
1434, -48.98903122, -5.75830757
1435, -49.48484790, -5.27518183
1436, -48.98803242, -5.27839058
1437, -49.48663708, -6.23450550
1438, -48.98978228, -6.71819539
1439, -48.98940675, -6.23825148
1440, -55.01397483, 5.76190928
1441, -54.51427722, 5.28119756
1442, -55.01533883, 4.80225315
1443, -55.01465683, 5.28208121
1444, -54.01276544, 4.80102554
1445, -54.01164878, 5.76022416
1446, -53.51013699, 5.28005214
1447, -54.01220711, 5.28062485
1448, -53.50953724, 6.23891548
1449, -54.51346339, 6.24051508
1450, -54.01135185, 6.71920641
1451, -54.01150031, 6.23971528
1452, -55.01385747, 6.72135875
1453, -55.01391615, 6.24163402
1454, -55.01503945, 3.84250568
1455, -54.51496790, 3.36202410
1456, -55.01552761, 3.36245135
1457, -54.01237015, 3.84167836
1458, -53.51049875, 3.36154300
1459, -54.01273333, 3.36178355
1460, -53.51037882, 4.32097273
1461, -54.51475677, 4.32173117
1462, -54.01256780, 4.32135195
1463, -55.01518914, 4.32237941
1464, -52.50209114, 3.36150771
1465, -51.99809462, 3.84154108
1466, -51.99780334, 3.36168086
1467, -52.50214020, 4.32094618
1468, -51.99791061, 4.80085396
1469, -51.99800261, 4.32119752
1470, -53.00635988, 4.80056346
1471, -53.00615914, 3.84135545
1472, -53.00625951, 4.32095946
1473, -53.00629495, 3.36152535
1474, -51.49400390, 5.28067721
1475, -50.99191039, 5.76101861
1476, -50.48898125, 5.28208683
1477, -50.99149257, 5.28138202
1478, -49.98865916, 5.76287312
1479, -49.98804493, 5.28300720
1480, -50.48950168, 6.24141228
1481, -49.98875007, 6.72232578
1482, -49.98870461, 6.24259945
1483, -50.99171025, 6.71994452
1484, -51.49411896, 6.23955086
1485, -50.99181032, 6.24048157
1486, -49.98340465, -3.83532644
1487, -50.48279673, -3.35465996
1488, -49.98263979, -3.35607674
1489, -50.98549840, -3.83254594
1490, -51.48652542, -3.35269267
1491, -50.98466107, -3.35367632
1492, -51.48793765, -4.30983733
1493, -50.48401414, -4.31256496
1494, -50.98645339, -4.78985636
1495, -50.98597589, -4.31120115
1496, -49.98399781, -4.79348227
1497, -49.98370123, -4.31440435
1498, -52.49511358, -3.35239092
1499, -52.99991950, -3.83147898
1500, -52.99960127, -3.35277110
1501, -52.49628413, -4.30948695
1502, -53.00127402, -4.78837518
1503, -53.00059676, -4.30992708
1504, -51.99269564, -4.78809760
1505, -51.99152613, -3.83122668
1506, -51.99211089, -4.30966214
1507, -51.99081950, -3.35254179
1508, -52.50205227, 5.28005256
1509, -51.99814556, 5.75987581
1510, -51.99802809, 5.28036489
1511, -52.50182407, 6.23886799
1512, -51.99779747, 6.71854304
1513, -51.99797152, 6.23920942
1514, -53.00553193, 6.71824223
1515, -53.00582938, 5.75954124
1516, -53.00568066, 6.23889174
1517, -53.00609463, 5.28005235
1518, -49.48946770, -8.15598534
1519, -48.99138297, -7.67936325
1520, -48.49378613, -8.16426035
1521, -48.99187086, -8.64088244
1522, -48.99162692, -8.16012285
1523, -47.99697276, -8.64942214
1524, -47.99681337, -7.68791513
1525, -47.99689307, -8.16866864
1526, -48.49302111, -7.20285523
1527, -47.99651056, -7.20719684
1528, -49.48814414, -7.19470342
1529, -48.99058263, -7.19877932
1530, -51.49949655, 12.01616136
1531, -51.99976916, 11.53225907
1532, -52.50027261, 12.01609771
1533, -51.99988458, 12.01612954
1534, -53.00129651, 11.53212440
1535, -53.50102390, 12.01602669
1536, -53.00064825, 12.01606220
1537, -53.50301481, 11.04857971
1538, -52.50074620, 11.04864064
1539, -53.00246449, 10.56509595
1540, -53.00188050, 11.04861017
1541, -51.99937638, 10.56522818
1542, -51.49839935, 11.04884662
1543, -51.99957277, 11.04874363
1544, -52.50148963, 7.19806069
1545, -51.99803107, 7.67813479
1546, -51.49433891, 7.19861713
1547, -51.99791427, 7.19833891
1548, -51.49496356, 8.15836590
1549, -52.50123382, 8.15797246
1550, -51.99816631, 8.63820357
1551, -51.99809869, 8.15816918
1552, -53.00396614, 8.63815912
1553, -53.00452740, 7.67804039
1554, -53.50725972, 8.15822706
1555, -53.00424677, 8.15809976
1556, -53.50856970, 7.19822193
1557, -53.00502967, 7.19814131
1558, -52.49750955, -5.26690177
1559, -53.00189416, -5.74642801
1560, -53.50565864, -5.26790142
1561, -53.00158409, -5.26740159
1562, -53.50590268, -6.22584741
1563, -52.49851444, -6.22474648
1564, -53.00220856, -6.22529695
1565, -51.99447202, -5.74618738
1566, -51.49137303, -6.22543163
1567, -51.99494374, -6.22508906
1568, -51.48965811, -5.26738321
1569, -51.99358383, -5.26714249
1570, -55.50794171, -9.11844452
1571, -56.00533667, -9.60411469
1572, -56.50466672, -9.12638523
1573, -56.00630421, -9.12241487
1574, -57.00197796, -9.61159398
1575, -57.00233336, -9.13050031
1576, -56.50345851, -10.08941989
1577, -57.00148055, -10.57397975
1578, -57.00172926, -10.09278687
1579, -56.00391048, -10.56823391
1580, -55.50578864, -10.08292871
1581, -56.00462358, -10.08617430
1582, -47.99838012, -10.57415060
1583, -48.49615105, -10.08969982
1584, -47.99777093, -9.61170306
1585, -47.99807552, -10.09292683
1586, -48.49474370, -9.12650982
1587, -47.99737185, -9.13056260
1588, -48.99386495, -9.60444131
1589, -49.49099211, -9.11881393
1590, -48.99286790, -9.12266187
1591, -49.49321277, -10.08338671
1592, -48.99549887, -10.56864521
1593, -48.99468191, -10.08654326
1594, -57.00151794, 10.57510117
1595, -56.50368683, 10.09205298
1596, -57.00216888, 9.61310566
1597, -57.00184341, 10.09410342
1598, -56.50521192, 9.12977142
1599, -57.00260596, 9.13219340
1600, -56.00593709, 9.60859258
1601, -55.50901668, 9.12512124
1602, -56.00711430, 9.12744633
1603, -55.50644187, 10.08799642
1604, -56.00419161, 10.57145681
1605, -56.00506435, 10.09002470
1606, -55.50356295, -11.04895388
1607, -56.00181021, -11.53396168
1608, -56.50215775, -11.05324171
1609, -56.00286035, -11.05109780
1610, -57.00067720, -11.53695427
1611, -57.00107887, -11.05546701
1612, -56.50067720, -12.01772350
1613, -57.00033860, -12.01847714
1614, -55.50113301, -12.01623818
1615, -56.00090511, -12.01698084
1616, -48.49921678, -12.01779739
1617, -47.99921678, -11.53702816
1618, -47.99960839, -12.01851408
1619, -48.49759690, -11.05348646
1620, -47.99879845, -11.05558938
1621, -48.99782339, -11.53417035
1622, -49.49572537, -11.04932911
1623, -48.99666113, -11.05140778
1624, -49.49860661, -12.01637296
1625, -48.99891170, -12.01708518
1626, -56.50072496, 12.01826557
1627, -57.00072496, 11.53749634
1628, -57.00036248, 12.01874817
1629, -56.50224290, 11.05490520
1630, -57.00112145, 11.05629875
1631, -56.00200736, 11.53555059
1632, -55.50395607, 11.05210220
1633, -56.00309949, 11.05350370
1634, -55.50128240, 12.01728502
1635, -56.00100368, 12.01777529
1636, -54.00460844, 10.56620546
1637, -54.50390091, 11.05031670
1638, -54.00230727, 11.53269095
1639, -54.00345786, 11.04944821
1640, -54.50128337, 12.01666426
1641, -54.00115363, 12.01634548
1642, -55.00256577, 11.53394928
1643, -55.00128288, 12.01697464
1644, -55.00529121, 10.56846962
1645, -55.00392849, 11.05120945
1646, -50.99504981, -10.56033124
1647, -50.49580240, -11.04641391
1648, -50.99752648, -11.52975509
1649, -50.99628815, -11.04504316
1650, -50.49861497, -12.01537035
1651, -50.99876324, -12.01487754
1652, -49.99722159, -11.53174331
1653, -49.99861079, -12.01587165
1654, -49.99430618, -10.56399971
1655, -49.99576388, -11.04787151
1656, -55.00212072, -11.53147352
1657, -54.50098771, -12.01523534
1658, -55.00106036, -12.01573676
1659, -54.00151358, -11.52951088
1660, -54.00075679, -12.01475544
1661, -54.50309066, -11.04602420
1662, -54.00325393, -10.55986603
1663, -54.00238376, -11.04468846
1664, -55.00453288, -10.56350455
1665, -55.00332680, -11.04748904
1666, -49.49882287, 12.01728681
1667, -49.99781919, 11.53399374
1668, -50.49899632, 12.01670692
1669, -49.99890959, 12.01699687
1670, -50.99849287, 11.53286829
1671, -50.99924644, 12.01643414
1672, -50.49680093, 11.05036574
1673, -50.99670740, 10.56634407
1674, -50.99760014, 11.04960618
1675, -49.99528023, 10.56842206
1676, -49.49629849, 11.05205006
1677, -49.99654971, 11.05120790
1678, -48.49928895, 12.01823552
1679, -48.99811182, 11.53552234
1680, -48.99905591, 12.01776117
1681, -48.49775793, 11.05480185
1682, -48.99594460, 10.57132958
1683, -48.99702821, 11.05342596
1684, -47.99846898, 10.57502787
1685, -47.99928895, 11.53746629
1686, -47.99887897, 11.05624708
1687, -47.99964448, 12.01873315
1688, -49.49189537, 9.12533567
1689, -48.99453972, 9.60866646
1690, -48.49510514, 9.12983751
1691, -48.99350025, 9.12758659
1692, -47.99795377, 9.61310910
1693, -47.99755257, 9.13222645
1694, -48.49642275, 10.09198312
1695, -47.99821137, 10.09406848
1696, -49.49406157, 10.08801291
1697, -48.99524216, 10.08999802
1698, -54.50621419, 10.08547708
1699, -55.00736486, 9.60500388
1700, -55.00632803, 10.08673675
1701, -54.50846554, 9.12227117
1702, -55.01011737, 8.64238853
1703, -55.00874111, 9.12369621
1704, -54.00825655, 8.63959903
1705, -54.00612295, 9.60249884
1706, -53.50591396, 9.11982671
1707, -54.00718975, 9.12104894
1708, -53.50451720, 10.08322723
1709, -54.00536570, 10.08435215
1710, -50.98885600, -5.74827591
1711, -50.48749741, -6.22949903
1712, -50.99001445, -6.70665475
1713, -50.98943522, -6.22746533
1714, -49.98763313, -6.71155591
1715, -49.98650137, -5.75244862
1716, -49.98706725, -6.23200227
1717, -50.48565127, -5.27074906
1718, -49.98524959, -5.27296544
1719, -50.98765469, -5.26906613
1720, -50.49348201, -10.07910974
1721, -49.99238860, -9.59849674
1722, -49.99334739, -10.08124822
1723, -50.49155304, -9.11369006
1724, -49.99015656, -8.63400725
1725, -49.99127258, -9.11625199
1726, -50.99190304, -8.62880316
1727, -50.99365280, -9.59411967
1728, -51.49400279, -9.10923277
1729, -50.99277792, -9.11146141
1730, -51.49522060, -10.07534117
1731, -50.99435130, -10.07722545
1732, -53.50399027, -9.10887544
1733, -54.00454040, -9.59369139
1734, -54.50690129, -9.11326662
1735, -54.00635115, -8.62845067
1736, -54.00544578, -9.11107103
1737, -55.00855830, -8.63367030
1738, -55.00628471, -9.59804084
1739, -55.00742150, -9.11585557
1740, -54.50502895, -10.07861668
1741, -55.00540880, -10.08077270
1742, -53.50276538, -10.07494074
1743, -54.00389717, -10.07677871
1744, -54.00948207, 7.67923116
1745, -54.51047891, 8.16060313
1746, -54.00886931, 8.15941510
1747, -55.01169668, 7.68167352
1748, -55.01090702, 8.16203103
1749, -54.51226422, 7.20021563
1750, -55.01277707, 7.20151614
1751, -54.01041696, 7.19921878
1752, -50.49027299, 7.20092334
1753, -49.99045320, 7.68229821
1754, -49.98960163, 7.20231200
1755, -50.49148945, 8.16100302
1756, -49.99127296, 8.64266202
1757, -49.99086308, 8.16248011
1758, -50.99355136, 8.63977297
1759, -50.99290165, 7.67959596
1760, -50.99322651, 8.15968446
1761, -50.99230595, 7.19977024
1762, -54.51061949, -5.27147156
1763, -55.01104576, -5.75318046
1764, -55.01162739, -5.27373940
1765, -54.51012099, -6.23007224
1766, -55.01081105, -6.71206266
1767, -55.01092840, -6.23262156
1768, -54.00809144, -6.70706295
1769, -54.00793224, -5.74885669
1770, -54.00801184, -6.22795982
1771, -54.00813906, -5.26968649
1772, -54.50834951, -8.15027695
1773, -54.00705288, -7.66727404
1774, -54.00670202, -8.14786235
1775, -54.50940229, -7.18952568
1776, -54.00757216, -7.18716850
1777, -55.00937026, -7.67244077
1778, -55.01009066, -7.19225171
1779, -55.00896428, -8.15305553
1780, -49.98945761, -7.67243134
1781, -50.48894659, -7.18928384
1782, -49.98854537, -7.19199363
1783, -50.99134273, -7.66735035
1784, -50.99067859, -7.18700255
1785, -50.49014647, -8.15045324
1786, -50.99162288, -8.14807675
1787, -49.98980709, -8.15321929
1788, -51.49596041, 9.11992857
1789, -50.99540056, 9.60261842
1790, -50.49299151, 9.12246282
1791, -50.99447596, 9.12119570
1792, -49.99361393, 9.60513648
1793, -49.99244344, 9.12389925
1794, -50.49483259, 10.08554563
1795, -49.99444708, 10.08677927
1796, -51.49727537, 10.08341686
1797, -50.99605398, 10.08448124
1798, -53.00107563, -9.59147763
1799, -52.49895751, -10.07459620
1800, -53.00086145, -10.07476847
1801, -51.99681945, -9.59166756
1802, -51.99708906, -10.07496869
1803, -52.49890456, -9.10834986
1804, -51.99645368, -9.10879131
1805, -53.00144741, -9.10861265
1806, -52.50107623, 9.11955097
1807, -51.99887033, 9.60127597
1808, -51.99851832, 9.11973977
1809, -52.50097134, 10.08308728
1810, -51.99912336, 10.08325207
1811, -53.00302405, 9.60121856
1812, -53.00274427, 10.08315725
1813, -53.00349509, 9.11968884
1814, -30.84603356, 8.31865787
1815, -32.60757618, -9.69388132
1816, -45.63357497, 1.04714739
1817, -23.78603828, 3.95183828
1818, -35.97476838, 10.54205410
1819, -38.09046063, -10.94350149
1820, -23.78999186, -4.02704935
1821, -28.53024267, -6.11026831
1822, -40.30668246, 11.18796668
1823, -45.64659167, -6.58471699
1824, -20.95332824, 2.32699678
1825, -42.51895484, -11.28042333
1826, -45.72598348, 4.89127379
1827, -20.74963577, -2.36917967
1828, -43.99381093, 11.16848584
1829, -45.67999584, -10.65275641
1830, -27.30369485, 5.23120017
1831, -35.96040569, -10.55545039
1832, -32.58001471, 9.71499452
1833, -17.98537983, -1.36044512
1834, -18.18546839, 1.54575215
1835, -45.43872378, 10.56619479
1836, -29.77826011, -7.41686142
1837, -28.63022054, 6.14126762
1838, -42.66461688, 11.23096921
1839, -25.33361834, -4.70656352
1840, -45.74126470, 6.74962983
1841, -45.69285226, -4.71542843
1842, -45.68960040, -2.82867949
1843, -39.19703604, 11.09499829
1844, -41.38511421, -11.28060576
1845, -40.27512489, -11.20134258
1846, -38.10569988, 10.95422671
1847, -30.86815853, -8.29522083
1848, -22.25681250, -2.89214218
1849, -22.24367250, 2.89243609
1850, -34.92667478, -10.36435119
1851, -34.90393016, 10.31388115
1852, -25.39297374, 4.59400006
1853, -33.93586639, -10.26942588
1854, -33.89230626, 10.25817553
1855, -22.90731530, -3.58258390
1856, -22.89762484, 3.54110768
1857, -31.83025644, -9.00279717
1858, -31.81660290, 9.01382933
1859, -29.79021457, 7.45337212
1860, -37.01810778, -10.75851372
1861, -37.03561120, 10.76894249
1862, -32.80903527, 8.16657943
1863, -32.74252255, -8.30208111
1864, -24.94496821, 3.45771089
1865, -24.92548850, -3.65320436
1866, -38.04570351, 9.81096797
1867, -38.01883155, -9.78122939
1868, -28.52594490, 4.69767296
1869, -43.97469227, 4.97332932
1870, -43.92036136, -6.40269788
1871, -22.02955510, 1.83243144
1872, -23.07126205, -2.38706788
1873, -42.50836407, -10.24119114
1874, -42.66361481, 9.93728750
1875, -30.10776011, -5.57379679
1876, -35.85786964, -9.46623354
1877, -35.94737129, 9.47499047
1878, -30.20759606, 5.72482523
1879, -45.70699807, 8.58673019
1880, -45.35193731, -8.60753174
1881, -30.86087363, 6.74454913
1882, -43.93485703, -4.63696834
1883, -27.16328426, -5.25082201
1884, -45.68137189, 2.99729056
1885, -45.65829179, -0.91204065
1886, -43.78034708, -10.76407186
1887, -30.89273195, -6.64258755
1888, -22.99333889, 2.33573590
1889, -41.44641769, 11.22658654
1890, -41.37187173, -10.11154484
1891, -39.17681893, -11.08816410
1892, -23.61266981, -3.12137738
1893, -23.57330037, 3.01877717
1894, -40.27804044, 9.98360575
1895, -34.81641246, -9.40641725
1896, -34.81596562, 9.05016553
1897, -33.68752546, -9.22935850
1898, -33.50960995, 9.33205952
1899, -26.67245522, 4.02724327
1900, -22.09755414, -1.61805853
1901, -31.69329843, 7.56021382
1902, -18.13122346, 0.18704775
1903, -19.29735258, -1.46644492
1904, -19.88372549, 1.54066240
1905, -31.80529229, -7.51900499
1906, -36.93937181, -9.62852668
1907, -36.97996390, 9.66096949
1908, -31.27656792, -4.96389454
1909, -34.20388205, 7.76971715
1910, -36.91391722, -8.54125962
1911, -28.00065739, 3.44866858
1912, -38.00612767, 8.67496711
1913, -24.50891536, -2.70068853
1914, -42.15309429, -6.48856803
1915, -23.83660747, 1.53998024
1916, -44.00709906, 6.77577374
1917, -43.84733673, -0.96331556
1918, -43.88991400, 3.14594355
1919, -31.18016298, 5.25420505
1920, -23.39093930, -1.01175213
1921, -42.59322723, -9.07252553
1922, -39.11840631, -9.89960965
1923, -20.55855934, -0.96333377
1924, -32.70111651, -6.78420559
1925, -26.10427162, 2.83978283
1926, -43.97227036, 9.96592984
1927, -43.92489623, -2.81296421
1928, -26.46360716, -4.16415767
1929, -21.29173622, 0.55942476
1930, -43.86648443, -7.92206218
1931, -41.43553394, 9.97955605
1932, -31.78880620, 6.12900481
1933, -40.23837755, -10.00679541
1934, -43.86770030, -9.16272083
1935, -39.15018034, 9.92165877
1936, -36.96733064, 8.58297682
1937, -32.62551211, 6.82146410
1938, -35.90629871, 8.32545787
1939, -35.80262248, -8.17651776
1940, -29.60465351, -4.44863736
1941, -30.12993606, 4.37973353
1942, -24.41972758, 2.50938446
1943, -22.82029390, 1.10101052
1944, -19.42319292, -0.13875320
1945, -44.04914037, 8.48531538
1946, -23.96268082, -1.85208485
1947, -31.48274255, 3.48416054
1948, -37.95109878, 7.57298841
1949, -30.66097025, -3.91209613
1950, -27.39173887, 2.22813461
1951, -36.77488982, -7.55471190
1952, -42.23511232, -2.84417916
1953, -42.22652278, 3.32508501
1954, -24.88627477, -1.32872727
1955, -25.30407236, 1.65766793
1956, -32.65262426, 5.69617245
1957, -35.24350534, 7.30188027
1958, -40.25064152, -8.78584534
1959, -37.96764235, -8.60982092
1960, -41.36254641, 8.74185201
1961, -39.11938532, 8.74500469
1962, -43.53796800, 1.09934160
1963, -42.23366384, -4.58621730
1964, -24.01997691, 0.34678386
1965, -42.11197637, 6.90889336
1966, -29.36933858, 2.89018087
1967, -42.57857948, 8.55371365
1968, -25.92824073, -3.18419735
1969, -41.40987135, -8.92482564
1970, -42.60043930, -7.85234541
1971, -36.85186532, 7.45500439
1972, -22.70776971, -0.02346283
1973, -33.77967212, -7.37954050
1974, -31.96263828, -5.94447806
1975, -27.50452759, -3.45557885
1976, -33.92948405, 6.59106588
1977, -34.52286100, -8.50661878
1978, -30.70157075, 2.21861108
1979, -28.70174991, 1.66348762
1980, -37.62331977, 6.58577947
1981, -37.88059673, -7.39960758
1982, -32.39478368, -4.29329694
1983, -42.03898122, 1.78126459
1984, -39.08298902, 7.53957809
1985, -40.62392334, -2.88687339
1986, -40.51976849, -6.09847151
1987, -42.16094145, -1.13805363
1988, -26.79266755, -2.44021072
1989, -33.58659653, -6.23041372
1990, -25.28053007, 0.25003339
1991, -35.95416459, 6.62412725
1992, -26.73909942, 0.89599927
1993, -42.26888776, 5.00187119
1994, -41.53530506, -7.73501748
1995, -33.76335966, 5.39181459
1996, -32.19087421, 4.65177240
1997, -40.25209404, 8.79013762
1998, -30.04519220, -2.87199216
1999, -35.19147010, -6.88755914
2000, -24.35829154, -0.50889064
2001, -39.09433125, -8.67893871
2002, -28.37627470, -4.52178768
2003, -35.03376413, 6.38814609
2004, -25.58948146, -2.14584689
2005, -41.21785121, 7.79803837
2006, -28.10028981, 0.55677948
2007, -37.71400491, -6.08638880
2008, -38.93069820, 6.06056076
2009, -32.79268727, 2.82360121
2010, -36.67122951, 5.41068449
2011, -40.68914989, 3.39387452
2012, -40.56733143, -1.26497106
2013, -34.71503137, -5.72679779
2014, -33.40527805, 4.13263208
2015, -29.92904961, 1.02651687
2016, -26.99959076, -1.44695204
2017, -39.09474640, -7.39592776
2018, -40.61853826, -4.52005232
2019, -31.75946982, -3.25187744
2020, -35.06163762, 5.21858607
2021, -28.42587047, -2.69575464
2022, -42.00915627, 0.42965044
2023, -40.69215594, 4.89777041
2024, -40.29742515, 7.62572424
2025, -40.34817637, -7.50854241
2026, -33.03009650, -5.28300155
2027, -29.11556734, -3.55343315
2028, -36.42296826, -6.40768984
2029, -26.01978991, -0.97551844
2030, -35.95815167, -5.17120694
2031, -32.09740511, 1.34010753
2032, -31.12429588, -2.16899218
2033, -40.51368213, 0.32785482
2034, -38.99493098, -1.36971685
2035, -36.45359962, 3.84855916
2036, -38.14786919, 4.89920836
2037, -29.32132084, -1.89834083
2038, -32.90055967, -2.56405662
2039, -33.54077688, -3.61236179
2040, -39.08376836, -4.49161451
2041, -34.12402749, 2.20693557
2042, -40.57784280, 1.87777823
2043, -39.09270298, -6.00490967
2044, -34.98353109, 3.64004908
2045, -34.16275492, -4.65167100
2046, -27.73400722, -1.91006814
2047, -29.19863086, -0.08694094
2048, -40.50727195, 6.35508824
2049, -39.31374202, 4.77337095
2050, -27.29836089, -0.41565031
2051, -33.44851464, 0.99897005
2052, -38.77600933, 0.30295002
2053, -37.81355212, 3.60173468
2054, -32.26868990, -1.50641836
2055, -31.00308667, 0.31836076
2056, -34.71125362, -2.93986872
2057, -37.41007978, -4.46689273
2058, -39.07789732, -2.93479976
2059, -39.22758398, 3.43538688
2060, -30.43697248, -0.89084958
2061, -28.43668488, -1.08570963
2062, -36.06583005, 2.71177597
2063, -37.65482463, -3.02359813
2064, -34.05997281, -1.86634045
2065, -37.41936134, 2.04575375
2066, -39.05994780, 1.96042385
2067, -32.67110805, 0.16868718
2068, -37.30148772, -1.46411439
2069, -31.68847449, -0.49013250
2070, -35.38877770, 1.53983389
2071, -36.51026356, -3.39266624
2072, -34.68163125, 0.09881927
2073, -37.53691441, -0.15796747
2074, -35.90457940, -2.26659656
2075, -36.57315430, 1.02554787
2076, -33.38681489, -0.79562309
2077, -35.35006745, -4.02165869
2078, -37.59726835, 0.80146340
2079, -35.20775321, -1.18242804
2080, -36.25574693, -0.29753654
2081, -27.67992744, -5.70971543
2082, -27.71391107, -4.87726892
2083, -28.49897247, -5.27571514
2084, -27.98345883, -5.29301591
2085, -30.72633622, 5.51721821
2086, -30.79301866, 4.82646283
2087, -30.06721067, 5.14762996
2088, -30.52182265, 5.14941001
2089, -24.77665939, -4.92128463
2090, -25.51882399, -5.30162260
2091, -25.02050956, -5.34274733
2092, -26.57024375, -1.27119315
2093, -26.61087947, -0.60067063
2094, -27.16454431, -1.02305967
2095, -26.78042664, -0.95615227
2096, -44.65200557, 11.01446065
2097, -44.62925407, 10.11575994
2098, -43.94378838, 10.57422510
2099, -44.42972233, 10.56940546
2100, -24.14753231, 2.09125866
2101, -24.84121691, 2.18744821
2102, -24.56172200, 1.51907410
2103, -24.51925226, 1.92148968
2104, -25.56537812, 5.24133953
2105, -24.80202045, 4.85178961
2106, -25.04255452, 5.30066078
2107, -27.79489393, 5.71846237
2108, -28.65192990, 5.32723783
2109, -27.90296948, 4.91121115
2110, -28.12943320, 5.33256733
2111, -42.48397265, -10.75705649
2112, -43.06806418, -10.38629407
2113, -43.09034554, -11.15713954
2114, -42.90119994, -10.76629171
2115, -37.64783204, -3.67850490
2116, -36.84469353, -3.90286421
2117, -37.05646767, -3.15287124
2118, -37.18813085, -3.59507541
2119, -22.68422828, -2.64175790
2120, -22.08428497, -2.41216732
2121, -22.64274018, -2.02260985
2122, -22.47280851, -2.33867973
2123, -25.26798841, 0.94506687
2124, -26.05286775, 1.34701307
2125, -26.02651054, 0.51840265
2126, -25.78210724, 0.93648464
2127, -22.87335459, -1.26759650
2128, -22.30469224, -0.73167298
2129, -23.11561506, -0.57866036
2130, -22.75191316, -0.86791003
2131, -22.06618093, 2.46121726
2132, -22.64681102, 2.62911516
2133, -22.61095782, 2.07066400
2134, -22.43521221, 2.37514901
2135, -34.91628224, -0.64541780
2136, -35.50937836, -0.02018993
2137, -35.72217682, -0.82021556
2138, -35.38103681, -0.48202383
2139, -42.50159106, -7.24770170
2140, -42.06275979, -7.82784684
2141, -41.71356458, -7.16688688
2142, -42.09230746, -7.39314310
2143, -32.88088547, 1.24613628
2144, -33.09503652, 0.53661585
2145, -32.36836262, 0.64533919
2146, -32.76701741, 0.81912793
2147, -19.87570763, -1.32126060
2148, -19.30517814, -0.79134961
2149, -19.98242362, -0.42143443
2150, -19.73467408, -0.84880036
2151, -37.50997253, -0.70572030
2152, -36.69112273, -0.92054944
2153, -36.98165327, -0.19240789
2154, -37.05121044, -0.61839365
2155, -17.46416746, 1.40569976
2156, -18.20477898, 0.85906237
2157, -17.44928791, 0.44046494
2158, -17.67187436, 0.90547909
2159, -44.53223546, -8.10607557
2160, -44.53047181, -9.04648345
2161, -43.83953060, -8.54147540
2162, -44.32378486, -8.56576927
2163, -26.85486017, -1.87102788
2164, -27.38546869, -1.63320373
2165, -27.35113143, -2.21049182
2166, -27.19188540, -1.91392154
2167, -38.09048376, -0.06295332
2168, -37.54185972, 0.32383765
2169, -38.12769261, 0.66685174
2170, -37.94113978, 0.31067431
2171, -42.72317829, 1.59847631
2172, -42.70479202, 0.61297579
2173, -41.97463858, 1.10618568
2174, -42.49081465, 1.10595794
2175, -35.79732560, 3.84840537
2176, -36.31451505, 3.25875271
2177, -35.53349932, 3.05249180
2178, -35.86420449, 3.39115566
2179, -26.35825510, -2.89308062
2180, -25.72897262, -2.73055424
2181, -26.20794382, -2.24619758
2182, -26.10096327, -2.61199652
2183, -30.67399083, -0.18329689
2184, -31.39281594, -0.05551406
2185, -31.16474736, -0.73578397
2186, -31.06518827, -0.33548154
2187, -20.18920838, -2.67921885
2188, -20.87328283, -2.93171711
2189, -20.40172133, -3.07603467
2190, -35.63640862, 7.01197843
2191, -35.51475074, 6.42532490
2192, -35.07934732, 6.86245983
2193, -35.41003620, 6.76551726
2194, -23.43486424, -4.40868855
2195, -24.02951196, -4.55423800
2196, -23.69125095, -4.64263656
2197, -24.03537589, 4.49961304
2198, -23.43479778, 4.37713001
2199, -23.69219990, 4.61501485
2200, -27.52340044, 0.77595249
2201, -27.77655476, 0.08255525
2202, -26.96394615, 0.19675944
2203, -27.40975996, 0.35106163
2204, -25.16713624, -1.71749158
2205, -25.36262201, -1.11592540
2206, -25.84984930, -1.58302409
2207, -25.47299911, -1.47446149
2208, -24.58425303, 0.38424539
2209, -24.80235247, -0.22871360
2210, -24.14450258, -0.10603777
2211, -24.52465346, 0.02097783
2212, -21.32036323, -2.07630754
2213, -20.63222870, -1.77477482
2214, -21.33649132, -1.18289497
2215, -21.10973573, -1.66823416
2216, -37.45195969, 7.55685317
2217, -37.85454144, 7.07406140
2218, -37.20044631, 6.92048189
2219, -37.49226831, 7.18733339
2220, -36.86662412, 1.52389156
2221, -37.60359798, 1.33056541
2222, -37.08896963, 0.87977037
2223, -37.18882676, 1.26324504
2224, -32.12077326, 6.48073122
2225, -32.72369048, 6.19465396
2226, -32.19842925, 5.87752032
2227, -32.35343279, 6.19732915
2228, -32.25941827, -9.91775155
2229, -32.84755923, -10.06893617
2230, -32.53130769, -10.13550241
2231, -33.49260018, -10.34312856
2232, -34.00153491, -10.65161344
2233, -33.65390188, -10.60651186
2234, -36.48986839, 8.50212611
2235, -36.94690641, 8.07774755
2236, -36.32493130, 7.82365898
2237, -36.57962566, 8.12689984
2238, -36.42159906, -8.43955056
2239, -36.29951366, -7.75482386
2240, -36.88358970, -8.05093457
2241, -36.51954360, -8.08375794
2242, -33.12700222, -7.10180305
2243, -33.11862034, -6.47769110
2244, -33.75178341, -6.71671915
2245, -33.34117645, -6.77868735
2246, -32.82494771, 10.08307167
2247, -32.24561078, 9.92763503
2248, -32.51984161, 10.14349488
2249, -35.45033013, 9.33460097
2250, -35.94613528, 8.96521943
2251, -35.32333782, 8.60959017
2252, -35.56300819, 8.96274109
2253, -33.98159040, 10.64343741
2254, -33.46397950, 10.34659517
2255, -33.63817437, 10.60424760
2256, -32.14911204, 7.87101880
2257, -32.80084021, 7.46510954
2258, -32.10008366, 7.21255554
2259, -32.36090453, 7.52059397
2260, -23.28407728, -3.81684474
2261, -23.23828531, -3.32504283
2262, -23.76197942, -3.50622942
2263, -23.43346976, -3.55926079
2264, -38.42425218, 5.45397811
2265, -39.22938708, 5.37264605
2266, -38.72441347, 4.78043544
2267, -38.79493754, 5.21789793
2268, -34.32373671, -9.36364939
2269, -34.07791073, -8.77321440
2270, -34.72280617, -8.96030779
2271, -34.36263042, -9.03590805
2272, -29.06846730, -4.57210608
2273, -28.73978876, -3.93256311
2274, -29.39320226, -3.97353094
2275, -29.05343156, -4.16542457
2276, -23.27602276, 3.76224870
2277, -23.74112651, 3.40718068
2278, -23.21463457, 3.25729030
2279, -23.41653267, 3.48563737
2280, -46.59254969, -4.76146379
2281, -46.56301339, -6.66717751
2282, -45.68020359, -5.65008940
2283, -46.58416850, -5.71182826
2284, -46.59200853, -2.85405440
2285, -45.69562928, -3.77486591
2286, -46.59486603, -3.80911046
2287, -46.61769680, 6.74080445
2288, -46.61119364, 4.84914787
2289, -45.73698364, 5.82287491
2290, -46.61656531, 5.79580854
2291, -32.82930242, -1.16347646
2292, -33.73002224, -1.32479088
2293, -33.47899832, -2.21586050
2294, -32.58236630, -2.03385768
2295, -33.15471780, -1.68461895
2296, -30.36140083, -3.38617274
2297, -30.57039057, -2.51786196
2298, -31.44491577, -2.71521648
2299, -31.20559570, -3.58661631
2300, -30.89465386, -3.05269769
2301, -32.07743202, -3.77626808
2302, -31.83585174, -4.62938506
2303, -30.96389402, -4.43734399
2304, -31.51972740, -4.10965540
2305, -38.92899347, -0.58173808
2306, -38.21041346, -1.43299589
2307, -38.17494821, -0.68691307
2308, -45.67765277, -1.87606382
2309, -46.57909232, -0.93218510
2310, -46.58686959, -1.89601829
2311, -42.03820186, 9.95774778
2312, -41.44756073, 10.60438933
2313, -42.04129293, 11.23061445
2314, -42.67131748, 10.58972398
2315, -42.04953389, 10.59686996
2316, -37.52803211, -2.32580748
2317, -39.04379603, -2.15479697
2318, -38.33513147, -2.96928708
2319, -38.27338338, -2.21181467
2320, -34.39220894, 5.27401421
2321, -35.02867691, 4.51933806
2322, -34.10509469, 3.89891303
2323, -33.61915818, 4.77222407
2324, -34.29263368, 4.60777528
2325, -32.32804583, -2.90747415
2326, -31.69803336, -1.83409737
2327, -32.01230908, -2.37379284
2328, -41.37460418, -10.69623722
2329, -41.94393556, -10.16703202
2330, -41.94994682, -11.29729538
2331, -41.93955189, -10.73024721
2332, -46.58557953, -10.60620662
2333, -45.57627719, -9.70307125
2334, -46.49654158, -8.63591898
2335, -46.52966442, -9.63432195
2336, -44.74311671, -0.91945668
2337, -44.79989024, -2.81473683
2338, -43.89835574, -1.89492590
2339, -44.77950159, -1.87587723
2340, -43.11126163, 5.00145041
2341, -42.22582951, 5.87844168
2342, -43.12798730, 6.81376427
2343, -43.98866613, 5.87789405
2344, -43.10583234, 5.90169269
2345, -46.57183790, 1.00639707
2346, -45.65122076, 2.02742071
2347, -46.59053307, 2.93924855
2348, -46.57864291, 1.97431695
2349, -45.63884939, 0.06128560
2350, -46.57261042, 0.03468770
2351, -40.63040661, -3.70455542
2352, -39.84573409, -4.49895641
2353, -39.08615884, -3.71412552
2354, -39.84260095, -2.90983517
2355, -39.85131114, -3.70697839
2356, -35.30182123, -2.60547189
2357, -34.38656549, -2.40454125
2358, -34.64249895, -1.51926272
2359, -35.55745864, -1.71143082
2360, -34.97190437, -2.06186052
2361, -39.77787832, -1.31419152
2362, -40.60126928, -2.07346745
2363, -39.81678459, -2.11290748
2364, -40.58374951, -5.32474449
2365, -39.79914859, -6.03207284
2366, -39.08615413, -5.26067152
2367, -39.82847396, -5.27864727
2368, -32.32666849, -6.38595790
2369, -32.49177737, -5.60707324
2370, -33.32866055, -5.76008049
2371, -32.81700730, -6.06000638
2372, -41.32141273, 1.84486440
2373, -41.27940787, 0.35957465
2374, -40.53077709, 1.10857162
2375, -41.27937664, 1.10484869
2376, -45.69136797, 11.60283364
2377, -46.54089776, 10.57081686
2378, -46.58911809, 11.54714778
2379, -42.26754451, 4.15218945
2380, -41.44483543, 3.37170298
2381, -40.71163675, 4.14576562
2382, -41.45836073, 4.95939862
2383, -41.47136083, 4.15793321
2384, -40.85162724, 9.98780357
2385, -40.29344927, 10.58435492
2386, -40.87210939, 11.21070351
2387, -40.86561266, 10.59805239
2388, -39.70788072, 0.31275082
2389, -40.53128572, -0.46381874
2390, -39.72900343, -0.50745215
2391, -43.93631564, -3.72814793
2392, -44.80755224, -4.67181924
2393, -44.80940766, -3.74741782
2394, -45.56704238, -7.52567978
2395, -46.52135024, -7.63634728
2396, -30.71035766, -5.27546554
2397, -29.82527603, -4.99072475
2398, -30.13144474, -4.20295400
2399, -30.40784788, -4.73073503
2400, -45.70771405, 3.94918590
2401, -46.60222855, 3.89631233
2402, -26.78189173, -4.71002899
2403, -26.99980725, -3.82244896
2404, -27.88268415, -3.95187501
2405, -27.35442879, -4.34354675
2406, -41.40183653, -11.86426479
2407, -42.56470323, -11.86241348
2408, -41.96311110, -11.87764667
2409, -27.97759961, -3.07801075
2410, -27.15922890, -2.97436770
2411, -28.07213498, -2.27974626
2412, -27.63244446, -2.63121873
2413, -44.76613374, -6.48250540
2414, -43.92885857, -5.53484235
2415, -44.79622954, -5.58547573
2416, -28.28681370, 4.07599041
2417, -27.33156095, 3.73270159
2418, -26.96012280, 4.64716528
2419, -27.62094265, 4.34219061
2420, -38.31215649, -4.49216760
2421, -38.33315091, -3.71885935
2422, -27.07952774, 1.61375864
2423, -28.05333305, 1.94786457
2424, -28.39028575, 1.08943800
2425, -27.75332548, 1.34970998
2426, -41.43589491, 11.83970600
2427, -42.63682769, 11.86127643
2428, -42.01322379, 11.85338949
2429, -19.62769238, 2.52132750
2430, -18.94054005, 1.56698505
2431, -18.09364819, 2.30026132
2432, -18.86171354, 2.38831246
2433, -42.20655010, -5.47816873
2434, -41.27057317, -6.22274833
2435, -41.41357677, -4.55354803
2436, -41.37263825, -5.40387755
2437, -30.84121610, 3.86479470
2438, -31.09422708, 2.85207720
2439, -30.04275333, 2.57099165
2440, -29.72187117, 3.56435396
2441, -30.42396699, 3.22300191
2442, -28.68323808, 3.17935388
2443, -29.23472736, 4.53164861
2444, -28.99108759, 3.84063741
2445, -38.39651431, -6.01960303
2446, -37.59086735, -5.35885526
2447, -38.33934751, -5.27523863
2448, -35.52278327, 7.76942517
2449, -34.76291943, 7.54631967
2450, -34.45371340, 8.36214277
2451, -35.02159332, 8.08674894
2452, -43.94625575, 4.06296989
2453, -43.03706683, 3.24069282
2454, -43.09158795, 4.11495595
2455, -33.46370951, 2.52120838
2456, -33.77898689, 1.57149330
2457, -32.45060882, 2.14552457
2458, -33.13396501, 1.86151322
2459, -40.32089624, 11.78825061
2460, -40.87522726, 11.81857550
2461, -40.30361176, -11.79561026
2462, -40.82976888, -11.24408508
2463, -40.85177364, -11.83482108
2464, -37.05448380, -6.22037770
2465, -36.20901629, -5.78875215
2466, -36.61864028, -4.87439231
2467, -36.87265610, -5.54925698
2468, -42.55863440, -9.67471982
2469, -41.38607768, -9.52106405
2470, -41.99658014, -8.99772313
2471, -41.96912670, -9.58942829
2472, -36.38667722, 0.44342469
2473, -35.05461827, 0.89097194
2474, -36.00515730, 1.25314046
2475, -35.73175672, 0.62438628
2476, -29.32587975, 1.35797817
2477, -29.56375339, 0.45988167
2478, -28.64465563, 0.25470208
2479, -28.98364619, 0.79094488
2480, -45.75776826, -11.58085958
2481, -46.62812357, -11.55675365
2482, -41.45772946, -8.32511822
2483, -40.83357806, -8.85246252
2484, -40.28872321, -8.15746023
2485, -40.96578991, -7.61206624
2486, -40.88327927, -8.23776052
2487, -37.93314589, -8.01313760
2488, -37.42933346, -8.58164961
2489, -37.30862984, -7.45432676
2490, -37.38638152, -8.02470242
2491, -44.87259602, 6.75748234
2492, -44.84627532, 4.93113464
2493, -44.86179274, 5.84835562
2494, -38.49290173, 7.55065348
2495, -37.98622313, 8.11426860
2496, -38.55769389, 8.71238551
2497, -39.10617839, 8.15042797
2498, -38.53657114, 8.13269688
2499, -40.23889767, -9.40022141
2500, -40.80653207, -10.05837133
2501, -40.81423953, -9.45818877
2502, -42.14202350, 2.52096595
2503, -40.63671383, 2.63636952
2504, -41.38585718, 2.59583540
2505, -34.03669112, 7.18017023
2506, -33.32544127, 6.71721815
2507, -33.58364139, 7.96604706
2508, -33.42124076, 7.33669192
2509, -25.44135284, -3.42681912
2510, -26.18138541, -3.65143334
2511, -25.90396919, -4.46333661
2512, -25.12416421, -4.16728503
2513, -25.66340236, -3.92739674
2514, -41.40933985, 9.35131876
2515, -42.64101660, 9.25877504
2516, -41.94186950, 8.65284116
2517, -42.00817471, 9.30517754
2518, -39.71269458, 9.95821853
2519, -40.26398797, 9.38080623
2520, -39.68820302, 8.77077627
2521, -39.13443658, 9.33197364
2522, -39.69909752, 9.36190202
2523, -39.03402894, 6.88244379
2524, -38.18042596, 6.34104936
2525, -38.39359277, 6.95318476
2526, -32.71616956, -4.79276553
2527, -31.61313754, -5.46230646
2528, -32.16356510, -5.12492651
2529, -34.12408785, -3.27518755
2530, -33.22170154, -3.08972726
2531, -33.80275238, -2.74628975
2532, -39.77877617, 6.21925638
2533, -39.69565631, 7.56481864
2534, -40.38719491, 7.01605990
2535, -39.71728854, 6.91253949
2536, -39.81975866, 1.90919833
2537, -39.14399417, 2.71014474
2538, -39.94949192, 3.40624128
2539, -39.88855516, 2.66663747
2540, -38.96720164, 1.18855441
2541, -39.74839030, 1.12562823
2542, -40.25423803, -10.60491750
2543, -40.81512041, -10.65173206
2544, -39.29116380, 4.12685652
2545, -39.96945400, 4.82822172
2546, -39.98213341, 4.12655289
2547, -39.75039574, 11.14600216
2548, -39.17267406, 10.50684355
2549, -39.73154124, 10.55030020
2550, -32.45871770, 5.18734796
2551, -31.65485306, 4.94810496
2552, -31.48770885, 5.70195982
2553, -31.95402642, 5.43150041
2554, -26.67436995, -3.32699211
2555, -31.43552105, -6.28469694
2556, -30.47340224, -6.12440037
2557, -31.05727503, -5.78986644
2558, -38.29810019, 2.02248471
2559, -37.64750709, 2.88774909
2560, -38.51462759, 3.49695726
2561, -38.39395574, 2.77344526
2562, -44.03118445, -11.68291460
2563, -44.77805261, -10.71398239
2564, -44.88338635, -11.61430247
2565, -38.59553672, 9.86965804
2566, -38.02717096, 9.24094015
2567, -38.57757397, 9.28958398
2568, -42.44100219, 7.81206733
2569, -43.28603588, 8.49185241
2570, -44.03499301, 7.64930946
2571, -43.20982991, 7.68742876
2572, -31.34232684, -7.09899154
2573, -32.26941857, -7.13785790
2574, -31.84128888, -6.72900029
2575, -40.25698368, 8.20721565
2576, -39.68680000, 8.17474545
2577, -42.08996006, -0.32185765
2578, -41.35901705, -1.21109287
2579, -41.31403067, -0.41064006
2580, -37.96637124, 4.27544844
2581, -38.62520484, 4.17215040
2582, -44.66426195, 1.07590932
2583, -43.77950124, 2.19970638
2584, -44.77507949, 3.06110455
2585, -44.70764891, 2.08584441
2586, -32.12965584, 3.14095596
2587, -31.85488069, 4.08539917
2588, -32.77042459, 4.38108567
2589, -33.11937033, 3.48269451
2590, -32.46947024, 3.77265260
2591, -39.14469221, -10.49561714
2592, -38.63307423, -11.01932027
2593, -38.05220477, -10.36146384
2594, -38.56752828, -9.84134219
2595, -38.59838706, -10.43047814
2596, -42.92345383, 2.37329940
2597, -39.09388061, -8.04778189
2598, -39.72252686, -7.43708125
2599, -39.67408566, -8.72664642
2600, -39.69352037, -8.09261737
2601, -38.65000455, 11.02892077
2602, -38.07455377, 10.38028904
2603, -38.62214090, 10.44753531
2604, -40.80824580, 8.78505246
2605, -40.83251538, 9.37675225
2606, -39.67898924, -9.95220393
2607, -39.10505300, -9.29318053
2608, -39.67241455, -9.34386213
2609, -43.25070711, -11.78745215
2610, -39.09717737, -6.71702099
2611, -38.48040937, -7.38325271
2612, -37.80868969, -6.76361559
2613, -38.44504254, -6.72020285
2614, -31.34729413, 6.42357248
2615, -31.26903100, 7.17320756
2616, -31.72205686, 6.82357658
2617, -43.31493928, 9.92873567
2618, -43.32586667, 11.21285260
2619, -43.31545586, 10.57811214
2620, -39.22696002, 11.67871370
2621, -39.77276648, 11.73866521
2622, -33.96237563, -0.39204266
2623, -34.31987345, -0.95815762
2624, -23.94460029, 0.87882044
2625, -24.59716398, 0.93787323
2626, -38.14443709, 11.52996860
2627, -38.68458267, 11.60938638
2628, -17.97652277, -2.21820304
2629, -17.25682280, -1.19649385
2630, -17.24496519, -2.11271486
2631, -17.31554558, 2.17651247
2632, -43.07751612, -4.61200987
2633, -42.24377595, -3.71239509
2634, -43.07034348, -2.82638907
2635, -43.08145531, -3.71902970
2636, -39.72620044, -11.14675554
2637, -39.69983893, -10.55085599
2638, -24.38961751, -3.85412200
2639, -24.55936270, -4.38180952
2640, -45.73473399, 7.66842316
2641, -46.59364698, 8.62868285
2642, -46.61178828, 7.68247521
2643, -30.49248873, 6.25207156
2644, -31.01313610, 5.97415311
2645, -25.76474195, 2.27364578
2646, -26.73485036, 2.52787142
2647, -26.40088345, 1.92727009
2648, -31.96762497, -0.98359895
2649, -30.79932315, -1.59671164
2650, -31.39728184, -1.28029950
2651, -25.69524223, -0.35562937
2652, -26.33017763, -0.05921052
2653, -42.20866449, -1.98531181
2654, -41.42072758, -2.86683797
2655, -41.39718972, -2.03327973
2656, -37.47662889, 8.63210704
2657, -37.45592329, 8.08528966
2658, -29.81717645, -1.45053589
2659, -29.70300703, -2.37220986
2660, -30.22486737, -1.97501669
2661, -43.09089851, -6.38256827
2662, -43.06933457, -5.51042582
2663, -44.08380135, 11.81077511
2664, -43.33883260, 11.84929329
2665, -44.85756024, 11.71603853
2666, -28.78074056, -3.13104307
2667, -28.34832744, -3.53402181
2668, -41.42714392, -3.70861810
2669, -38.13658562, -11.52504219
2670, -39.21653315, -11.67583257
2671, -38.67578709, -11.60498942
2672, -42.98630206, -1.04847351
2673, -43.04120089, -1.93753610
2674, -32.18567523, -0.16942651
2675, -31.45023115, 0.79625047
2676, -31.85577570, 0.31541101
2677, -18.03594092, -0.54873935
2678, -17.30009234, -0.31540782
2679, -28.81492209, -0.60474021
2680, -27.93165770, -0.75012988
2681, -28.28264758, -0.25476327
2682, -41.29129245, 8.18437172
2683, -40.84269988, 7.71294850
2684, -40.79385543, 8.22828256
2685, -36.37837731, 6.98105431
2686, -35.97225527, 7.40436482
2687, -40.61870380, 5.63910023
2688, -39.88659425, 5.51843085
2689, -30.49788144, 0.67322813
2690, -29.75812756, -0.45964435
2691, -30.13054923, 0.11189413
2692, -39.75976868, -11.73971433
2693, -32.96492383, -3.95064524
2694, -33.85670987, -4.13155930
2695, -33.58754490, -4.96561518
2696, -33.28109002, -4.46052992
2697, -34.00423103, 0.62418446
2698, -34.76319195, 1.86966587
2699, -34.40390671, 1.22964670
2700, -23.97974819, 2.77754973
2701, -23.35373897, 1.99034642
2702, -23.30552036, 2.66476057
2703, -23.70276489, 2.36905278
2704, -37.56995619, 10.86561259
2705, -37.51093001, 9.73999758
2706, -37.00501715, 10.21248355
2707, -37.53866173, 10.30025610
2708, -33.17414538, 5.54079423
2709, -33.00721393, 4.96897056
2710, -35.73558121, 2.14625008
2711, -34.49641574, 2.87079302
2712, -35.13416399, 2.49861101
2713, -36.92210949, -9.07064664
2714, -37.99492962, -9.19625885
2715, -37.48015813, -9.70907697
2716, -37.45643573, -9.14071909
2717, -29.55945742, -3.21691452
2718, -29.85855138, -3.69650451
2719, -31.35673407, 1.83009096
2720, -31.76193318, 2.48353189
2721, -35.81299545, -8.89108288
2722, -36.40096504, -9.54108347
2723, -36.38340061, -8.97362922
2724, -36.97227208, 9.11318880
2725, -37.49541776, 9.18237995
2726, -37.55417100, -10.85403385
2727, -36.97583890, -10.19246608
2728, -37.51440465, -10.27987472
2729, -37.24682174, 6.07245607
2730, -36.25826852, 6.12742614
2731, -36.77311787, 6.51796729
2732, -45.63449697, 9.51050605
2733, -44.85663703, 8.52617874
2734, -44.02742521, 9.26613053
2735, -44.78917139, 9.37205890
2736, -36.46156689, 9.57123618
2737, -36.45821454, 9.02816156
2738, -31.27338158, 4.43522033
2739, -36.61151803, -7.00982705
2740, -37.19656703, -6.85949127
2741, -30.33800647, -7.88486317
2742, -30.33634101, -7.00602816
2743, -31.33167460, -7.89803554
2744, -30.83682814, -7.47490013
2745, -33.02407342, -0.29548348
2746, -32.50355995, -0.65550787
2747, -43.75323351, -0.01359741
2748, -44.68990791, 0.05909508
2749, -36.50707891, 10.66056165
2750, -35.95279941, 9.99863252
2751, -36.48054951, 10.11202130
2752, -32.64719928, -3.43205998
2753, -43.31592428, 9.23619999
2754, -36.48795965, -10.65721615
2755, -35.91043193, -10.01593119
2756, -36.44229558, -10.10160485
2757, -44.81924505, 4.00275113
2758, -46.55705979, 9.58752253
2759, -33.22604486, -7.90336674
2760, -32.27625893, -7.90626301
2761, -32.73656091, -7.50903304
2762, -36.01385056, -11.09804564
2763, -37.06972282, -11.32374433
2764, -36.54031992, -11.21401945
2765, -37.60242117, -11.42871689
2766, -37.07788958, 11.32773104
2767, -37.61033893, 11.43380569
2768, -36.01810823, 11.09121994
2769, -36.54807481, 11.21413840
2770, -33.80651777, 3.19619710
2771, -38.52708009, -8.63940201
2772, -38.50760854, -8.02103503
2773, -28.89639133, -1.46813586
2774, -29.33182270, -0.99402005
2775, -18.79320014, 0.03174666
2776, -18.66855098, -1.45838787
2777, -18.70436384, -0.69405809
2778, -24.03906834, -2.92346241
2779, -24.72560318, -3.16349333
2780, -24.22484800, -3.36624429
2781, -25.17652309, 4.00951169
2782, -24.39053866, 3.72367678
2783, -24.57936248, 4.28004195
2784, -43.90522936, -7.20980848
2785, -43.21091351, -7.86297744
2786, -43.16100571, -7.17118197
2787, -29.55405057, 5.91442319
2788, -29.37649447, 5.23307391
2789, -33.85176437, 5.99715467
2790, -33.26193632, 6.11722458
2791, -34.75218305, -4.33916747
2792, -35.66289827, -4.58473597
2793, -35.32440573, -5.45518956
2794, -34.45085721, -5.18234837
2795, -35.04812951, -4.88944853
2796, -44.87535207, 7.65079438
2797, -37.12317285, 3.73721684
2798, -36.55046902, 4.53235062
2799, -37.50425855, 5.10516079
2800, -37.28115275, 4.42197487
2801, -36.67625199, 2.42678352
2802, -36.94053690, 3.06866264
2803, -24.62470511, -0.91688805
2804, -25.12633865, -0.64892927
2805, -30.30749598, 1.60856404
2806, -30.91421190, 1.22830902
2807, -34.12717267, -5.98954547
2808, -33.87406729, -5.47274238
2809, -35.08099203, -8.32758018
2810, -35.32619344, -9.42735737
2811, -35.23991555, -8.89518209
2812, -30.33472566, 7.07316377
2813, -30.32561051, 7.91574250
2814, -31.27777454, 7.92576291
2815, -30.80055862, 7.52567298
2816, -26.39879798, 3.42603619
2817, -27.69941049, 2.83845986
2818, -27.04104502, 3.13016915
2819, -34.95406724, -6.29917933
2820, -34.55167284, -7.13296195
2821, -34.33697925, -6.54173630
2822, -35.44203706, 10.41830974
2823, -34.84308846, 9.75874492
2824, -35.41528163, 9.86610333
2825, -36.53547397, -1.91470381
2826, -36.14196894, -1.32804691
2827, -31.36487514, -8.65768085
2828, -32.27340118, -8.66050815
2829, -31.81219139, -8.28224195
2830, -44.69474962, -7.34887893
2831, -38.54730692, -9.24361120
2832, -34.87211561, -9.88119051
2833, -35.44164219, -10.45779844
2834, -35.38799126, -9.94501159
2835, -26.61404334, 5.65669683
2836, -27.88662978, 6.78602591
2837, -27.17756089, 6.24140779
2838, -26.53588290, -5.68438105
2839, -27.84063865, -6.77707597
2840, -27.11754544, -6.24313410
2841, -25.00121915, -2.45308935
2842, -24.24864729, -2.26790626
2843, -24.42914722, -1.58779945
2844, -24.72098966, -2.00590036
2845, -35.77548589, 5.25898650
2846, -35.78978157, 4.53532225
2847, -19.36533877, -2.24402269
2848, -20.01583080, -2.01527321
2849, -20.64697290, 0.96247677
2850, -20.57697309, 2.06024603
2851, -21.35827650, 2.11084087
2852, -21.63130551, 1.19309618
2853, -21.04714387, 1.57473926
2854, -34.37969857, 10.25821554
2855, -34.08925888, 9.18076411
2856, -33.73167796, 9.82085918
2857, -34.26671409, 9.74781026
2858, -29.19033866, -6.85364412
2859, -29.43891985, -5.83368108
2860, -29.84739511, -6.45396926
2861, -29.23837146, 6.89071714
2862, -29.89365292, 6.53175881
2863, -28.07559081, -1.52758853
2864, -28.86495166, -2.30904610
2865, -28.47977992, -1.89552803
2866, -41.23786723, 6.53984655
2867, -41.38979529, 5.76835630
2868, -33.82060604, -9.82650755
2869, -34.42038223, -10.29636689
2870, -34.35248562, -9.83077685
2871, -23.66718548, -1.43692908
2872, -23.88182736, -0.75324027
2873, -24.14971808, -1.17442512
2874, -40.43472521, -6.82657938
2875, -39.76257306, -6.75246818
2876, -33.53128771, 0.11797451
2877, -32.26227471, 8.65203242
2878, -31.34534998, 8.67001966
2879, -31.77132707, 8.27827604
2880, -34.96897480, 10.83200867
2881, -35.49242889, 10.95956869
2882, -34.97983121, -10.85127727
2883, -35.49446953, -10.97534538
2884, -32.25303405, -9.34518022
2885, -33.18996741, -8.72346827
2886, -33.06090214, -9.47885427
2887, -32.70257269, -9.05305341
2888, -33.00578900, 9.51739838
2889, -33.21650712, 8.80417551
2890, -32.23333721, 9.36178279
2891, -32.68029103, 9.07505861
2892, -34.45774504, 10.72539931
2893, -34.47538339, -10.74119088
2894, -31.41605653, -9.34133778
2895, -30.42935591, -8.70765166
2896, -30.94111680, -9.03844654
2897, -31.40775831, 9.34958324
2898, -30.42152569, 8.72003815
2899, -30.93251645, 9.04740756
2900, -29.25411773, 7.88269312
2901, -28.59505080, 7.34940449
2902, -29.24454631, -7.86660620
2903, -28.56796274, -7.33418374
2904, -31.86056013, -9.63579505
2905, -31.84999793, 9.64470946
2906, -43.88746606, -9.86847611
2907, -43.21872189, -9.13684485
2908, -43.18483445, -9.78372104
2909, -22.51105926, 1.34837891
2910, -22.76671730, 0.70287365
2911, -21.94606012, 0.23939871
2912, -22.21159496, 0.86933217
2913, -26.16839002, -5.06044130
2914, -22.57525242, -3.89857984
2915, -23.02966306, -4.15149470
2916, -22.57202846, 3.87867533
2917, -23.02694105, 4.12404087
2918, -33.30507292, -9.93354402
2919, -22.54155231, 3.24618098
2920, -22.92917997, 2.94908358
2921, -22.55464405, -3.27192574
2922, -23.36684951, -2.75434325
2923, -22.96269211, -2.99828803
2924, -20.95687991, -0.13940660
2925, -21.64521242, -0.47391000
2926, -23.49485245, -2.11829657
2927, -23.15682644, -1.71383400
2928, -21.71722958, -3.19838052
2929, -21.49919772, -2.65385513
2930, -20.93528002, 2.81698785
2931, -21.72226336, 3.19098764
2932, -21.52422879, 2.66209352
2933, -34.21188645, -8.00538461
2934, -33.67902553, -8.35215876
2935, -29.86078713, 8.33392954
2936, -29.86330257, -8.31892816
2937, -35.80766817, -6.64146379
2938, -35.45395414, -7.49236069
2939, -36.04391032, -7.23389302
2940, -23.20055429, 1.25572107
2941, -22.91963599, 1.67773863
2942, -33.25227663, 9.95257239
2943, -29.02829655, 2.26349104
2944, -28.36595965, 2.55590280
2945, -41.51403483, 7.50176392
2946, -41.80518581, 8.02361974
2947, -27.63392197, -1.22554053
2948, -19.61614572, 0.58679886
2949, -18.89686389, 0.77053753
2950, -44.68697804, -9.82177482
2951, -29.67651522, 1.95021623
2952, -23.79075785, -2.51526624
2953, -36.99549622, 0.35706373
2954, -25.50932872, 3.16063451
2955, -26.02443752, 4.32908421
2956, -25.77780430, 3.72781611
2957, -42.88649829, -0.17408755
2958, -41.10971944, -6.95624457
2959, -24.69047645, 2.95675868
2960, -24.19633067, 3.22212338
2961, -26.36435473, -1.74499546
2962, -29.22679260, -2.75508243
2963, -23.44133129, 0.20472294
2964, -23.63429706, -0.30461378
2965, -35.94215739, -3.70268606
2966, -36.28270617, -4.26409677
2967, -36.33475000, 1.83495954
2968, -37.84068688, 5.73986714
2969, -26.27216885, 4.98855988
2970, -34.50169415, 6.46809552
2971, -34.59625957, 7.01351102
2972, -22.10253181, 3.58631626
2973, -22.10577516, -3.59835911
2974, -42.61293687, -8.45880469
2975, -42.03121136, -8.40081230
2976, -43.22375840, -8.50211695
2977, -35.05142170, 5.84728063
2978, -35.66200549, 5.90937733
2979, -25.23050493, -2.93575929
2980, -35.57388562, -6.04488056
2981, -38.23839611, 1.29335013
2982, -18.68525294, -2.29105017
2983, -29.18753432, -5.17124787
2984, -36.21702008, -2.83872441
2985, -36.83896075, -2.54923975
2986, -20.32187023, 2.72689775
2987, -25.20001658, 2.63361952
2988, -35.03124651, -3.47847686
2989, -34.44136917, -3.80542342
2990, -41.01008882, 7.18487783
2991, -20.29642654, 0.24886145
2992, -34.44884157, 5.89480964
2993, -23.33899323, 0.75422542
2994, -35.62188291, -3.15476563
2995, -33.83386977, 8.58079148
2996, -34.82399656, -7.73790463
2997, -28.51460757, -5.69299172
2998, -28.24121565, -5.28436552
2999, -27.83169314, -5.50136567
3000, -28.10508506, -5.90999187
3001, -28.17315036, -5.59717870
3002, -27.42160585, -5.48026872
3003, -27.84868495, -5.08514241
3004, -27.43859767, -5.06404546
3005, -27.63514540, -5.28270557
3006, -28.04509288, -4.69952830
3007, -28.43762358, -4.89875141
3008, -28.14315427, -4.99194691
3009, -30.13740337, 5.43622760
3010, -30.29451666, 5.14851999
3011, -30.62407944, 5.33331411
3012, -30.46696614, 5.62102172
3013, -30.38074140, 5.38477085
3014, -30.95324960, 5.38571163
3015, -30.65742066, 4.98793642
3016, -30.98659082, 5.04033394
3017, -30.80533513, 5.18682403
3018, -30.46147736, 4.60309818
3019, -30.09857336, 4.76368175
3020, -30.37799701, 4.87580908
3021, -25.56481856, -5.78231456
3022, -25.26966677, -5.32218496
3023, -24.91950552, -5.53589274
3024, -25.24216204, -5.65910365
3025, -24.89858447, -5.13201598
3026, -24.40142459, -5.05817721
3027, -24.66046506, -5.29703498
3028, -25.05513886, -4.81392408
3029, -25.42622116, -5.00409306
3030, -25.16240282, -5.06805452
3031, -27.08206753, -1.23500586
3032, -26.97248547, -0.98960597
3033, -26.67533520, -1.11367271
3034, -26.78491725, -1.35907260
3035, -26.87870136, -1.17433928
3036, -26.29501683, -1.12335580
3037, -26.69565305, -0.77841145
3038, -26.31533469, -0.78809454
3039, -26.49533494, -0.95088362
3040, -26.95462018, -0.50816047
3041, -27.23145260, -0.71935499
3042, -26.96355282, -0.74888322
3043, -43.96879965, 10.87135547
3044, -44.18675536, 10.57181528
3045, -44.54086395, 10.79193306
3046, -44.32290825, 11.09147324
3047, -44.25483180, 10.83164426
3048, -45.04536468, 10.79032772
3049, -44.52948820, 10.34258270
3050, -45.03398892, 10.34097737
3051, -44.78742644, 10.56645521
3052, -44.30076221, 10.04084489
3053, -43.95802937, 10.27007747
3054, -44.24375878, 10.30633009
3055, -24.19916473, 1.52952717
3056, -24.54048713, 1.72028189
3057, -24.33339228, 2.00637417
3058, -23.99206989, 1.81561945
3059, -24.26627851, 1.76795067
3060, -24.28362994, 2.30032156
3061, -24.68023458, 2.05446894
3062, -24.63047224, 2.34841633
3063, -24.48193226, 2.17739525
3064, -25.07264463, 1.92255807
3065, -24.93289718, 1.58837102
3066, -24.80656588, 1.82141998
3067, -24.41410512, 5.02342970
3068, -24.92228748, 5.07622520
3069, -24.93052800, 5.51484947
3070, -24.67231656, 5.26913958
3071, -25.30396632, 5.27100016
3072, -25.58809563, 5.75217303
3073, -25.25931181, 5.63351125
3074, -25.47917593, 4.91766979
3075, -25.09749709, 4.72289483
3076, -25.20073171, 4.99694749
3077, -27.60333217, 5.07120566
3078, -28.01620134, 5.12188924
3079, -27.96216356, 5.52551485
3080, -27.54929439, 5.47483127
3081, -27.78274786, 5.29836026
3082, -28.21255723, 5.92986500
3083, -28.39068155, 5.32990258
3084, -28.64107522, 5.73425273
3085, -28.30161939, 5.62988379
3086, -28.58893740, 5.01245540
3087, -28.21445719, 4.80444205
3088, -28.30256937, 5.06717232
3089, -42.80465019, -11.21878143
3090, -42.99577274, -10.96171563
3091, -42.69258630, -10.76167410
3092, -42.50146374, -11.01873991
3093, -42.74861824, -10.99022777
3094, -42.49616836, -10.49912382
3095, -42.98463206, -10.57629289
3096, -42.78821412, -10.31374260
3097, -42.74040021, -10.53770835
3098, -43.42420563, -10.57518297
3099, -43.43534631, -10.96060570
3100, -43.20998918, -10.76844930
3101, -37.35564615, -3.08823468
3102, -37.12229926, -3.37397332
3103, -37.41798144, -3.63679015
3104, -37.65132833, -3.35105151
3105, -37.38681380, -3.36251242
3106, -37.52895591, -4.07269881
3107, -37.01641219, -3.74896981
3108, -37.12738665, -4.18487847
3109, -37.27268405, -3.91083431
3110, -36.67747855, -3.64776523
3111, -36.78336562, -3.27276874
3112, -36.89988890, -3.51086927
3113, -22.85700111, -2.20483886
3114, -22.55777434, -2.18064479
3115, -22.57851839, -2.49021882
3116, -22.87774516, -2.51441289
3117, -22.71775975, -2.34752884
3118, -22.47052039, -2.76695004
3119, -22.27854674, -2.37542352
3120, -22.17054874, -2.65215475
3121, -22.37453357, -2.57118678
3122, -22.09091956, -2.01511293
3123, -22.37014716, -1.82033419
3124, -22.32434695, -2.09787886
3125, -25.65352031, 0.38421802
3126, -25.90430889, 0.72744364
3127, -25.52504783, 0.94077575
3128, -25.27425924, 0.59755013
3129, -25.58928407, 0.66249689
3130, -25.28603039, 1.30136740
3131, -25.91748750, 1.14174885
3132, -25.67847005, 1.50234050
3133, -25.60175894, 1.22155813
3134, -26.39598358, 1.12150617
3135, -26.38280498, 0.70720096
3136, -26.15014624, 0.92447491
3137, -23.25327718, -0.79520624
3138, -22.93376411, -0.72328519
3139, -22.81263387, -1.06775326
3140, -23.13214694, -1.13967431
3141, -23.03295552, -0.93147975
3142, -22.48545436, -1.44282752
3143, -22.52830270, -0.79979151
3144, -22.20112319, -1.17486576
3145, -22.50687853, -1.12130951
3146, -22.50623097, -0.37756791
3147, -22.91169238, -0.30106159
3148, -22.71999754, -0.55042655
3149, -22.32025646, 1.95154772
3150, -22.52308502, 2.22290651
3151, -22.25069657, 2.41818314
3152, -22.04786801, 2.14682435
3153, -22.28547652, 2.18486543
3154, -22.15492672, 2.67682668
3155, -22.54101162, 2.50213209
3156, -22.44524176, 2.76077563
3157, -22.34796917, 2.58947938
3158, -22.82007496, 2.48242553
3159, -22.80214836, 2.20319995
3160, -22.67157999, 2.35266602
3161, -35.46496501, -1.00132180
3162, -35.55160681, -0.65111970
3163, -35.14865952, -0.56372082
3164, -35.06201772, -0.91392292
3165, -35.30681227, -0.78252131
3166, -34.79895674, -0.27329927
3167, -35.44520758, -0.25110688
3168, -35.09550480, 0.03931467
3169, -35.12208216, -0.26220307
3170, -35.88256265, -0.15886323
3171, -35.98896188, -0.55887605
3172, -35.71708473, -0.40499147
3173, -41.93332943, -6.82772746
3174, -41.90293602, -7.28001499
3175, -42.29694926, -7.32042240
3176, -42.32734268, -6.86813487
3177, -42.11513935, -7.07407493
3178, -42.55101518, -7.55002356
3179, -42.07753363, -7.61049497
3180, -42.33159954, -7.84009612
3181, -42.31427440, -7.58025926
3182, -41.79903243, -7.78143216
3183, -41.62443482, -7.45095218
3184, -41.85098422, -7.53072358
3185, -32.23288387, 0.99272336
3186, -32.56769002, 0.73223356
3187, -32.82395144, 1.03263210
3188, -32.48914529, 1.29312190
3189, -32.52841765, 1.01267773
3190, -33.16470005, 1.12255317
3191, -32.93102696, 0.67787189
3192, -33.27177558, 0.76779295
3193, -33.04786351, 0.90021253
3194, -32.88307229, 0.35265152
3195, -32.51973534, 0.40701318
3196, -32.72538115, 0.54244254
3197, -20.27049148, -0.69238410
3198, -19.85854885, -0.63511740
3199, -19.80519085, -1.08503048
3200, -20.21713348, -1.14229718
3201, -20.03784117, -0.88870729
3202, -19.58653010, -1.39385276
3203, -19.51992611, -0.82007499
3204, -19.30126536, -1.12889726
3205, -19.55322811, -1.10696387
3206, -19.36418553, -0.46505140
3207, -19.70280827, -0.28009381
3208, -19.61136719, -0.55008440
3209, -37.25928384, -0.17518768
3210, -37.01643186, -0.40540077
3211, -37.28059148, -0.66205697
3212, -37.52344347, -0.43184388
3213, -37.26993766, -0.41862233
3214, -37.40573012, -1.08491735
3215, -36.87116659, -0.76947154
3216, -36.99630523, -1.19233192
3217, -37.13844835, -0.92719444
3218, -36.47343483, -0.60904299
3219, -36.61870010, -0.24497222
3220, -36.74493335, -0.50722188
3221, -16.97464395, 0.72023247
3222, -17.56058113, 0.67297201
3223, -17.56802091, 1.15558943
3224, -16.98208373, 1.20284988
3225, -17.27133243, 0.93791095
3226, -17.82481792, 1.47572596
3227, -17.93832667, 0.88227073
3228, -18.19512369, 1.20240726
3229, -17.88157230, 1.17899834
3230, -18.16800122, 0.52305506
3231, -17.79025568, 0.31375634
3232, -17.86429118, 0.59801354
3233, -43.85300752, -8.23176879
3234, -44.08165773, -8.55362233
3235, -44.42801016, -8.33592242
3236, -44.19935995, -8.01406887
3237, -44.14050884, -8.28384560
3238, -44.94208638, -8.35680365
3239, -44.42712834, -8.80612636
3240, -44.94120456, -8.82700759
3241, -44.68460736, -8.58146501
3242, -44.19908605, -9.10460214
3243, -43.85361545, -8.85209811
3244, -44.14037189, -8.82911224
3245, -27.07189949, -2.32535127
3246, -27.27150841, -2.06220668
3247, -27.02337278, -1.89247471
3248, -26.82376386, -2.15561930
3249, -27.04763614, -2.10891299
3250, -26.92722546, -1.65898996
3251, -27.28867704, -1.77356263
3252, -27.19252972, -1.54007789
3253, -27.10795125, -1.71627630
3254, -27.55973795, -1.77163593
3255, -27.54256932, -2.06027998
3256, -27.41562318, -1.91692131
3257, -38.45185097, 0.48490088
3258, -38.03441620, 0.48876303
3259, -38.01581177, 0.12386050
3260, -38.43324654, 0.11999835
3261, -38.23383137, 0.30438069
3262, -37.81369908, -0.11046039
3263, -37.74149975, 0.31725598
3264, -37.53938707, 0.08293509
3265, -37.77759942, 0.10339779
3266, -37.56956404, 0.56265052
3267, -37.86248048, 0.73415757
3268, -37.80199012, 0.52570678
3269, -42.00680990, 1.44372513
3270, -42.23272661, 1.10607181
3271, -42.60699647, 1.35221713
3272, -42.38107976, 1.68987045
3273, -42.30690318, 1.39797113
3274, -43.13057315, 1.34890896
3275, -42.59780333, 0.85946687
3276, -43.12138001, 0.85615870
3277, -42.86418824, 1.10418791
3278, -42.35697415, 0.52131312
3279, -41.99189742, 0.76791806
3280, -42.29485038, 0.81369246
3281, -35.25851521, 3.34627044
3282, -35.69885190, 3.22182373
3283, -35.83076504, 3.61978051
3284, -35.39042834, 3.74422723
3285, -35.54464012, 3.48302548
3286, -36.12546261, 3.84848227
3287, -36.08935977, 3.32495419
3288, -36.38405733, 3.55365594
3289, -36.10741119, 3.58671823
3290, -36.19017255, 2.98526434
3291, -35.79966468, 2.88213388
3292, -35.94451223, 3.10354403
3293, -26.50030568, -2.34320415
3294, -26.15445354, -2.42909705
3295, -26.22960918, -2.75253857
3296, -26.57546132, -2.66664567
3297, -26.36495743, -2.54787136
3298, -26.14324792, -3.03863898
3299, -25.91496794, -2.67127538
3300, -25.82860668, -2.95737579
3301, -26.02910793, -2.85495718
3302, -25.65922704, -2.43820057
3303, -25.89871264, -2.19602224
3304, -25.90684029, -2.43364881
3305, -30.80085992, -0.81331677
3306, -31.11496782, -0.53563275
3307, -30.86958955, -0.25938921
3308, -30.55548165, -0.53707323
3309, -30.83522473, -0.53635299
3310, -30.83853875, 0.06753194
3311, -31.22900211, -0.19549780
3312, -31.19795131, 0.13142335
3313, -31.03377043, -0.06398293
3314, -31.54064522, -0.27282328
3315, -31.42661092, -0.61295823
3316, -31.32780652, -0.40422802
3317, -20.89200183, -3.32233355
3318, -20.63750208, -3.00387589
3319, -20.29572074, -3.29584986
3320, -20.59386129, -3.30909171
3321, -20.29546485, -2.87762676
3322, -19.82896393, -2.99879948
3323, -20.06234234, -3.14732467
3324, -20.46942207, -2.52419926
3325, -20.81145930, -2.65044839
3326, -20.55346208, -2.76403757
3327, -35.16142633, 7.08217005
3328, -35.24469176, 6.81398855
3329, -35.52322241, 6.88874784
3330, -35.43995698, 7.15692935
3331, -35.34232437, 6.98545895
3332, -35.79528661, 6.81805284
3333, -35.46239347, 6.59542108
3334, -35.73445767, 6.52472608
3335, -35.62884004, 6.70673696
3336, -35.27425744, 6.40673549
3337, -35.05655573, 6.62530296
3338, -35.25947460, 6.61036202
3339, -24.02785088, -4.87465389
3340, -23.86038145, -4.59843728
3341, -23.65761288, -4.79988576
3342, -23.84273188, -4.83726983
3343, -23.56305760, -4.52566256
3344, -23.32831202, -4.56394434
3345, -23.49296245, -4.68191505
3346, -23.61242805, -4.21786895
3347, -23.90975191, -4.29064367
3348, -23.73640475, -4.40815311
3349, -23.32827879, 4.54816507
3350, -23.56349884, 4.49607243
3351, -23.65808735, 4.78607491
3352, -23.49318307, 4.66711999
3353, -23.86378789, 4.55731394
3354, -24.03078284, 4.84734141
3355, -23.84443510, 4.81670816
3356, -23.91070708, 4.22572566
3357, -23.61041803, 4.16448415
3358, -23.73710296, 4.36089904
3359, -26.85152278, 0.54637935
3360, -27.18685305, 0.27391053
3361, -27.46658020, 0.56350706
3362, -27.13124993, 0.83597588
3363, -27.15905149, 0.55494321
3364, -27.81184512, 0.66636598
3365, -27.59315736, 0.21680844
3366, -27.93842229, 0.31966737
3367, -27.70250124, 0.44158721
3368, -27.53745782, -0.16654753
3369, -27.13115352, -0.10944544
3370, -27.36215544, 0.05368150
3371, -25.71966538, -1.86443549
3372, -25.66142421, -1.52874279
3373, -25.32006768, -1.59597653
3374, -25.37830885, -1.93166924
3375, -25.51986653, -1.73020601
3376, -25.02670551, -1.52310942
3377, -25.41781056, -1.29519344
3378, -25.12444839, -1.22232633
3379, -25.22225803, -1.40915143
3380, -25.69120596, -1.04572192
3381, -25.93481961, -1.27927127
3382, -25.67631508, -1.28723235
3383, -24.08223975, 0.12037304
3384, -24.33457802, -0.04252997
3385, -24.55445324, 0.20261161
3386, -24.30211497, 0.36551462
3387, -24.31834650, 0.16149233
3388, -24.93239155, 0.31713939
3389, -24.66350296, -0.10386788
3390, -25.04144127, 0.01065990
3391, -24.79794726, 0.10663576
3392, -24.58032201, -0.36880212
3393, -24.25139706, -0.30746421
3394, -24.45745001, -0.20566604
3395, -21.71702273, -1.40047675
3396, -21.22311352, -1.42556456
3397, -21.21504948, -1.87227085
3398, -21.70895869, -1.84718304
3399, -21.46603610, -1.63637380
3400, -21.03499950, -2.22274361
3401, -20.87098221, -1.72150449
3402, -20.69093223, -2.07197724
3403, -20.95299086, -1.97212405
3404, -20.59539402, -1.36905429
3405, -20.94752533, -1.07311437
3406, -20.90925377, -1.39730943
3407, -37.02615582, 7.18774314
3408, -37.34635731, 7.05390764
3409, -37.47211400, 7.37209328
3410, -37.15191250, 7.50592878
3411, -37.24913491, 7.27991821
3412, -37.70152923, 7.56492079
3413, -37.67340488, 7.13069739
3414, -37.90282011, 7.32352491
3415, -37.68746705, 7.34780909
3416, -37.73893061, 6.82992043
3417, -37.41188304, 6.75313068
3418, -37.54264396, 6.94191404
3419, -36.83106197, 0.95265912
3420, -37.13889820, 1.07150771
3421, -37.02772544, 1.39356830
3422, -36.71988921, 1.27471971
3423, -36.92939370, 1.17311371
3424, -37.14299273, 1.78482265
3425, -37.39621237, 1.29690523
3426, -37.51147966, 1.68815958
3427, -37.26960255, 1.54086394
3428, -37.60043317, 1.06601441
3429, -37.34311899, 0.84061688
3430, -37.36966568, 1.06876106
3431, -31.99361773, 6.00326256
3432, -32.27593102, 6.03742473
3433, -32.23710303, 6.33903018
3434, -31.95478973, 6.30486801
3435, -32.11536038, 6.17114637
3436, -32.37314269, 6.65109766
3437, -32.53856164, 6.19599156
3438, -32.67460130, 6.50805903
3439, -32.45585216, 6.42354461
3440, -32.68815737, 5.94541320
3441, -32.42552676, 5.78684638
3442, -32.48204420, 5.99141897
3443, -32.91871513, -10.33198825
3444, -32.68943346, -10.10221929
3445, -32.50983667, -10.26201633
3446, -32.71427590, -10.29700229
3447, -32.39536298, -10.02662698
3448, -32.12313927, -10.04988587
3449, -32.31648797, -10.15595110
3450, -32.43349722, -9.80581644
3451, -32.72756771, -9.88140875
3452, -32.56146534, -9.95401786
3453, -33.99720834, -10.82983695
3454, -33.82771840, -10.62906265
3455, -33.57263914, -10.70403112
3456, -33.78492374, -10.76693404
3457, -33.57325103, -10.47482021
3458, -33.24123560, -10.46908444
3459, -33.40693737, -10.58655778
3460, -33.71423328, -10.30627722
3461, -33.96870065, -10.46051966
3462, -33.77097584, -10.46766994
3463, -36.11561501, 8.07455842
3464, -36.45227848, 7.97527941
3465, -36.53474702, 8.31451298
3466, -36.19808355, 8.41379199
3467, -36.32518102, 8.19453570
3468, -36.72859952, 8.54255147
3469, -36.76326603, 8.10232369
3470, -36.95711852, 8.33036218
3471, -36.74593277, 8.32243758
3472, -36.89938586, 7.76637597
3473, -36.58839831, 7.63933169
3474, -36.67583217, 7.87082769
3475, -36.89875346, -8.29609710
3476, -36.70156665, -8.06734625
3477, -36.47057133, -8.26165425
3478, -36.66775814, -8.49040509
3479, -36.68466240, -8.27887567
3480, -36.11211077, -8.30803416
3481, -36.40952863, -7.91929090
3482, -36.05106807, -7.96567081
3483, -36.26081970, -8.11366253
3484, -36.53720174, -7.65476788
3485, -36.82923976, -7.80282324
3486, -36.61938420, -7.86105707
3487, -33.76572777, -7.04812983
3488, -33.54647993, -6.74770325
3489, -33.23408934, -6.94024520
3490, -33.45333717, -7.24067178
3491, -33.49990855, -6.99418751
3492, -32.91405937, -6.94300432
3493, -33.22989840, -6.62818923
3494, -32.90986843, -6.63094835
3495, -33.07197888, -6.78559677
3496, -33.35260844, -6.35405241
3497, -33.66918997, -6.47356644
3498, -33.44954419, -6.55087783
3499, -32.11623553, 10.05482761
3500, -32.38272619, 10.03556496
3501, -32.50410363, 10.26601257
3502, -32.31016958, 10.16042009
3503, -32.67239466, 10.11328328
3504, -32.90740937, 10.33905600
3505, -32.70575650, 10.30253428
3506, -32.70248121, 9.89903310
3507, -32.41281274, 9.82131478
3508, -32.54260370, 9.96729903
3509, -35.06965172, 8.82987785
3510, -35.44317301, 8.78616563
3511, -35.50666916, 9.14867103
3512, -35.13314787, 9.19238325
3513, -35.28816044, 8.98927444
3514, -35.69885071, 9.40479572
3515, -35.75457174, 8.96398026
3516, -35.94675328, 9.22010495
3517, -35.72671122, 9.18438799
3518, -35.92621700, 8.64533865
3519, -35.61481827, 8.46752402
3520, -35.68469500, 8.71575214
3521, -33.22692526, 10.47081775
3522, -33.55107694, 10.47542139
3523, -33.56477539, 10.70289899
3524, -33.39585032, 10.58685837
3525, -33.80988239, 10.62384250
3526, -33.98723609, 10.82574893
3527, -33.77600574, 10.76432396
3528, -33.93694833, 10.45080647
3529, -33.67814288, 10.30238535
3530, -33.74401263, 10.46311393
3531, -31.89669104, 7.38638468
3532, -32.23049409, 7.36657476
3533, -32.25500828, 7.69580639
3534, -31.92120524, 7.71561631
3535, -32.07584966, 7.54109553
3536, -32.47907365, 8.01879911
3537, -32.58087237, 7.49285176
3538, -32.80493774, 7.81584449
3539, -32.52997301, 7.75582544
3540, -32.71317616, 7.14328682
3541, -32.36279789, 7.01700982
3542, -32.47183513, 7.25493079
3543, -23.77598564, -3.76663938
3544, -23.59772459, -3.53274510
3545, -23.35877352, -3.68805276
3546, -23.53703457, -3.92194704
3547, -23.56737958, -3.72734607
3548, -23.09569629, -3.69971432
3549, -23.33587753, -3.44215181
3550, -23.07280030, -3.45381337
3551, -23.21578691, -3.57093306
3552, -23.42547756, -3.22321011
3553, -23.68732461, -3.31380340
3554, -23.51160107, -3.37797760
3555, -38.43614133, 4.83982190
3556, -38.75967550, 4.99916669
3557, -38.60959486, 5.33593802
3558, -38.28606068, 5.17659323
3559, -38.52286809, 5.08787996
3560, -38.67747519, 5.75726943
3561, -39.01216231, 5.29527199
3562, -39.08004264, 5.71660341
3563, -38.84481875, 5.52627071
3564, -39.27156455, 5.07300850
3565, -39.01907775, 4.77690320
3566, -39.01562003, 5.03608760
3567, -34.76960932, -9.18336252
3568, -34.54271830, -8.99810792
3569, -34.34318357, -9.19977872
3570, -34.57007458, -9.38503332
3571, -34.55639644, -9.19157062
3572, -34.00563109, -9.29650395
3573, -34.22027058, -8.90456123
3574, -33.88271810, -9.00128645
3575, -34.11295083, -9.10053259
3576, -34.30038587, -8.63991659
3577, -34.62283359, -8.73346328
3578, -34.42155208, -8.81901225
3579, -29.49892788, -4.21108415
3580, -29.22331691, -4.06947775
3581, -29.06094943, -4.36876533
3582, -29.33656041, -4.51037172
3583, -29.27993866, -4.28992474
3584, -28.72237100, -4.54694688
3585, -28.89661016, -4.04899384
3586, -28.55803173, -4.22717540
3587, -28.80949058, -4.29797036
3588, -28.92767805, -3.74299813
3589, -29.25438480, -3.76348204
3590, -29.07549748, -3.90623794
3591, -23.05612970, 3.39919899
3592, -23.31558362, 3.37146384
3593, -23.34627772, 3.62394304
3594, -23.08682380, 3.65167819
3595, -23.20120371, 3.51157101
3596, -23.53103052, 3.85704349
3597, -23.57882959, 3.44640903
3598, -23.76358239, 3.67950948
3599, -23.55493006, 3.65172626
3600, -23.65721344, 3.21297892
3601, -23.39396747, 3.13803374
3602, -23.48639853, 3.29222138
3603, -45.68652792, -5.18275891
3604, -46.13218605, -5.68095883
3605, -46.58835909, -5.23664602
3606, -46.14270097, -4.73844611
3607, -46.13744351, -5.20970247
3608, -47.04627484, -4.78457805
3609, -47.04208425, -5.74052951
3610, -47.04417955, -5.26255378
3611, -46.57359095, -6.18950288
3612, -47.03150670, -6.69897337
3613, -47.03679547, -6.21975144
3614, -46.10480253, -6.62594725
3615, -45.66339763, -6.11740319
3616, -46.11849429, -6.15345304
3617, -45.69261484, -3.30177270
3618, -46.14524765, -3.79198819
3619, -46.59343728, -3.33158243
3620, -46.14080447, -2.84136695
3621, -46.14302606, -3.31667757
3622, -47.04600427, -2.86933489
3623, -47.04743301, -3.82763216
3624, -47.04671864, -3.34848352
3625, -46.59370786, -4.28528713
3626, -47.04685393, -4.30610510
3627, -45.69424077, -4.24514717
3628, -46.14397431, -4.26521715
3629, -45.73912417, 6.28625237
3630, -46.17677447, 5.80934172
3631, -46.61713105, 6.26830649
3632, -46.17948075, 6.74521714
3633, -46.17812761, 6.27727943
3634, -47.05884840, 6.73578684
3635, -47.05828265, 5.78251965
3636, -47.05856553, 6.25915325
3637, -46.61387947, 5.32247820
3638, -47.05559682, 4.82842009
3639, -47.05693974, 5.30546987
3640, -46.16858856, 4.87021083
3641, -45.73148356, 5.35707435
3642, -46.17268152, 5.33977628
3643, -32.42552810, -1.77013802
3644, -32.86854205, -1.85923832
3645, -32.99201011, -1.42404771
3646, -32.54899616, -1.33494741
3647, -32.70876911, -1.59709286
3648, -33.10805865, -0.97954978
3649, -33.44237002, -1.50470492
3650, -33.55841857, -1.06020699
3651, -33.27521434, -1.24212735
3652, -33.89499753, -1.59556566
3653, -33.31685806, -1.95023972
3654, -33.76948557, -2.04110047
3655, -33.60592779, -1.77290269
3656, -33.18977899, -2.38995856
3657, -32.74146298, -2.29895715
3658, -33.02916052, -2.12459844
3659, -30.93328298, -3.74935622
3660, -31.05012478, -3.31965700
3661, -30.62802734, -3.21943522
3662, -30.51118554, -3.64913443
3663, -30.78065516, -3.48439572
3664, -30.20329651, -3.12908245
3665, -30.73252222, -2.78527983
3666, -30.30779139, -2.69492706
3667, -30.46790936, -2.95718114
3668, -30.84734323, -2.34342707
3669, -31.16978481, -2.88395709
3670, -31.28460582, -2.44210433
3671, -31.00856402, -2.61369208
3672, -31.60219279, -2.98354696
3673, -31.48253276, -3.41924687
3674, -31.32615879, -3.15160198
3675, -31.36266155, -3.84813585
3676, -31.79857971, -3.94296174
3677, -31.91845092, -3.51407276
3678, -31.64055624, -3.68110431
3679, -32.23610785, -4.03478251
3680, -31.67778957, -4.36952023
3681, -32.11531771, -4.46134100
3682, -31.95694871, -4.20215137
3683, -31.55620983, -4.79663980
3684, -31.24181071, -4.27349970
3685, -31.12023097, -4.70061927
3686, -31.39901027, -4.53506975
3687, -30.81243214, -4.17472006
3688, -31.08754684, -4.01142796
3689, -38.13271599, -0.37493319
3690, -38.55197084, -0.63432558
3691, -38.85250140, -0.13939403
3692, -38.49260869, -0.25716361
3693, -38.96196223, -0.97572746
3694, -38.19268084, -1.05995448
3695, -38.60267222, -1.40135637
3696, -38.57732153, -1.01784097
3697, -37.75595059, -1.44855514
3698, -37.84246037, -0.69631668
3699, -37.79920548, -1.07243591
3700, -37.82807973, -0.40338854
3701, -47.03954616, -0.94686178
3702, -46.58298095, -1.41410169
3703, -47.04343479, -1.90954760
3704, -47.04149048, -1.42820469
3705, -46.58943906, -2.37503635
3706, -47.04471953, -2.38944125
3707, -46.13226118, -1.88604106
3708, -45.68362659, -2.35237166
3709, -46.13653282, -2.36370400
3710, -45.66797228, -1.39405224
3711, -46.11869206, -0.92211287
3712, -46.12547662, -1.40407696
3713, -42.66746614, 10.26350574
3714, -42.36042568, 10.59329697
3715, -42.04386787, 10.27730887
3716, -42.35090833, 9.94751764
3717, -42.35566701, 10.27040731
3718, -41.73686790, 9.96865191
3719, -41.74854731, 10.60062965
3720, -41.44154733, 10.29197269
3721, -41.74270760, 10.28464078
3722, -41.44698921, 10.91548793
3723, -42.04541341, 10.91374221
3724, -41.74385531, 11.22860049
3725, -41.74620131, 10.91461507
3726, -42.35295490, 11.23079183
3727, -42.66796718, 10.91034660
3728, -42.35669029, 10.91204440
3729, -37.99497805, -2.99644260
3730, -38.30425743, -2.59055087
3731, -37.90070775, -2.26881108
3732, -37.59142837, -2.67470281
3733, -37.94784290, -2.63262684
3734, -37.41475992, -1.89496094
3735, -38.24189842, -1.82240528
3736, -37.82832917, -1.85868311
3737, -38.65858971, -2.18330582
3738, -39.01936351, -1.76225691
3739, -38.63063096, -1.79233109
3740, -39.06084668, -2.54479837
3741, -38.70651440, -2.95204342
3742, -38.68255205, -2.56767462
3743, -33.69125892, 5.08201933
3744, -33.95589593, 4.68999967
3745, -34.34242131, 4.94089474
3746, -34.07778430, 5.33291440
3747, -34.01684011, 5.01145704
3748, -34.72692328, 5.24630014
3749, -34.66065529, 4.56355667
3750, -35.04515726, 4.86896207
3751, -34.69378929, 4.90492840
3752, -35.00610400, 4.07969357
3753, -34.19886418, 4.25334416
3754, -34.54431289, 3.76948106
3755, -34.60248409, 4.16651886
3756, -33.75518637, 4.01577256
3757, -33.51221811, 4.45242807
3758, -33.85554115, 4.35288611
3759, -31.98336163, -1.67025786
3760, -31.85517122, -2.10394511
3761, -32.29733769, -2.20382526
3762, -32.14034966, -1.93704156
3763, -32.17017745, -2.64063350
3764, -32.61430275, -2.73576538
3765, -32.45582022, -2.46979532
3766, -32.04375783, -3.07967579
3767, -31.72861242, -2.54450466
3768, -31.88618512, -2.81209023
3769, -31.41116462, -2.00154478
3770, -31.56988852, -2.27302472
3771, -41.66753051, -11.28895057
3772, -41.94474935, -11.01377129
3773, -41.65707803, -10.71324222
3774, -41.37985919, -10.98842149
3775, -41.66230427, -11.00109639
3776, -41.37323795, -10.40389103
3777, -41.94174372, -10.44863962
3778, -41.65790364, -10.13928843
3779, -41.65749084, -10.42626533
3780, -42.22614982, -10.20411158
3781, -42.21176227, -10.74365185
3782, -42.21895604, -10.47388172
3783, -42.23445083, -11.28885935
3784, -42.22310655, -11.01625560
3785, -46.99827079, -8.64488257
3786, -46.51310300, -9.13512047
3787, -47.01483221, -9.62485329
3788, -47.00655150, -9.13486793
3789, -46.55762198, -10.12026429
3790, -47.04278977, -10.59156485
3791, -47.02881099, -10.10820907
3792, -46.13278769, -10.62948152
3793, -46.05297081, -9.66869660
3794, -45.62813652, -10.17791383
3795, -46.09287925, -10.14908906
3796, -45.46410725, -9.15530149
3797, -45.92423945, -8.62172536
3798, -45.98860513, -9.14521098
3799, -43.87284623, -1.42912073
3800, -44.33892867, -1.88540157
3801, -44.76130915, -1.39766695
3802, -44.29522672, -0.94138612
3803, -44.31707769, -1.41339384
3804, -45.20070425, -0.91574866
3805, -45.22857718, -1.87597053
3806, -45.21464072, -1.39585959
3807, -44.78969592, -2.34530703
3808, -45.24474532, -2.82170816
3809, -45.23666125, -2.34883934
3810, -44.36239324, -2.81385052
3811, -43.91162599, -2.35394505
3812, -44.35066095, -2.34962604
3813, -43.98167920, 5.42561169
3814, -43.54724923, 5.88979337
3815, -43.10854699, 5.45157155
3816, -43.54297695, 4.98738987
3817, -43.54511309, 5.43859162
3818, -42.69007470, 5.00166080
3819, -42.66583093, 5.89006719
3820, -42.24735864, 5.44015644
3821, -42.67795281, 5.44586399
3822, -42.16890294, 6.39366752
3823, -43.11690982, 6.35772848
3824, -42.61998183, 6.86132882
3825, -42.64290638, 6.37569800
3826, -43.56754318, 6.79476901
3827, -43.99788259, 6.32683389
3828, -43.55739621, 6.34228119
3829, -47.04526654, 2.91193197
3830, -46.58458799, 2.45678275
3831, -47.03932146, 1.94869694
3832, -47.04229400, 2.43031445
3833, -46.57524041, 1.49035701
3834, -47.03591895, 0.98396777
3835, -47.03762020, 1.46633235
3836, -46.10270643, 1.02677223
3837, -46.11493184, 2.00086883
3838, -45.64239786, 1.53728405
3839, -46.10881914, 1.51382053
3840, -45.66629633, 2.51235564
3841, -46.13595248, 2.96826956
3842, -46.12544216, 2.48456919
3843, -46.57222416, 0.52054238
3844, -47.03630521, 0.01734385
3845, -47.03611208, 0.50065581
3846, -46.57585137, -0.44874870
3847, -47.03792569, -0.46475897
3848, -46.10572991, 0.04798665
3849, -45.64857059, -0.42537752
3850, -46.11221098, -0.43706311
3851, -45.63621218, 0.55421650
3852, -46.10421817, 0.53737944
3853, -40.23326215, -2.89835428
3854, -39.84695605, -3.30840678
3855, -40.24085888, -3.70576691
3856, -40.62716498, -3.29571441
3857, -40.23706051, -3.30206059
3858, -40.62447243, -4.11230387
3859, -39.84852262, -4.10296740
3860, -40.23213618, -4.50950436
3861, -40.23649753, -4.10763563
3862, -39.46475123, -4.49528546
3863, -39.46873499, -3.71055195
3864, -39.08496360, -4.10287001
3865, -39.46674311, -4.10291871
3866, -39.08202808, -3.32446264
3867, -39.46024914, -2.92231746
3868, -39.46449206, -3.31643471
3869, -35.73101902, -1.98901369
3870, -35.26468150, -1.88664567
3871, -35.13686280, -2.33366621
3872, -35.60320032, -2.43603422
3873, -35.43394091, -2.16133995
3874, -35.00653742, -2.77267030
3875, -34.67923493, -2.23320089
3876, -34.54890956, -2.67220498
3877, -34.84288618, -2.50293559
3878, -34.22326915, -2.13544085
3879, -34.80720166, -1.79056162
3880, -34.35123588, -1.69280158
3881, -34.51523541, -1.96300123
3882, -34.92512608, -1.35084538
3883, -35.38260592, -1.44692943
3884, -35.09490379, -1.61874552
3885, -40.61259631, -2.48017042
3886, -40.20902693, -2.09318747
3887, -39.82969277, -2.51137132
3888, -40.22114454, -2.49577087
3889, -39.43029031, -2.13385222
3890, -39.44526972, -2.52808484
3891, -39.79733146, -1.71354950
3892, -39.38640465, -1.34195418
3893, -39.40834748, -1.73790320
3894, -40.17260487, -1.28958129
3895, -40.58430035, -1.66921926
3896, -40.19081590, -1.69138438
3897, -39.83710402, -4.88880184
3898, -40.20611173, -5.30169588
3899, -40.60114388, -4.92239841
3900, -40.21912395, -4.90560012
3901, -40.55175900, -5.71160800
3902, -39.81381127, -5.65536006
3903, -40.15945854, -6.06527217
3904, -40.18278514, -5.68348403
3905, -39.44592578, -6.01849126
3906, -39.45731404, -5.26965939
3907, -39.08942856, -5.63279059
3908, -39.45161991, -5.64407533
3909, -39.08496125, -4.87614301
3910, -39.46103263, -4.88247243
3911, -32.96781382, -6.26884874
3912, -32.57183789, -6.22298214
3913, -32.51389250, -6.58508174
3914, -32.74085316, -6.42696524
3915, -32.14465339, -6.16521798
3916, -32.65439233, -5.83353981
3917, -32.22720783, -5.77577565
3918, -32.39952286, -5.99937890
3919, -32.76093694, -5.44503740
3920, -33.07283392, -5.91004344
3921, -33.17937852, -5.52154102
3922, -32.91688543, -5.67754042
3923, -33.45762854, -5.99524711
3924, -33.21272118, -6.13204792
3925, -40.55430995, 1.49317493
3926, -40.90507687, 1.10671016
3927, -41.30039469, 1.47485655
3928, -40.94962777, 1.86132132
3929, -40.92735232, 1.48401574
3930, -41.68019698, 1.81306450
3931, -41.62700761, 1.10551719
3932, -41.65360229, 1.45929084
3933, -41.27939226, 0.73221167
3934, -41.64428207, 0.39461255
3935, -41.63564484, 0.75006487
3936, -40.89654500, 0.34371474
3937, -40.52222961, 0.71821322
3938, -40.90081093, 0.72521245
3939, -45.98981077, 10.56850583
3940, -46.56500793, 11.05898232
3941, -46.14024303, 11.57499071
3942, -45.56504588, 11.08451422
3943, -46.06502690, 11.07174827
3944, -45.76235065, 12.05141682
3945, -46.62789238, 12.02357389
3946, -46.19512152, 12.03749536
3947, -47.04455905, 11.54280466
3948, -47.06394619, 12.02140233
3949, -47.02044888, 10.57386997
3950, -47.03250396, 11.05833731
3951, -41.86362425, 4.98063490
3952, -41.46486078, 4.55866591
3953, -41.86945267, 4.15506133
3954, -42.26821614, 4.57703032
3955, -41.86653846, 4.56784812
3956, -42.24703365, 3.73863723
3957, -41.45809813, 3.76481810
3958, -41.83567911, 3.34839400
3959, -41.85256589, 3.75172766
3960, -41.06699266, 3.38278875
3961, -41.09149879, 4.15184942
3962, -40.70039332, 3.76982007
3963, -41.07924573, 3.76731908
3964, -40.70189635, 4.52176802
3965, -41.07525834, 4.92858451
3966, -41.08337856, 4.54021697
3967, -41.15926354, 11.21864502
3968, -40.86886102, 10.90437795
3969, -41.15658670, 10.60122086
3970, -41.15792512, 10.90993294
3971, -40.85861995, 10.29292798
3972, -41.14358059, 9.98367981
3973, -41.15008364, 10.29245033
3974, -40.56483384, 9.98570466
3975, -40.57953097, 10.59120366
3976, -40.28574485, 10.28398033
3977, -40.57218240, 10.28845416
3978, -40.30006586, 10.88616080
3979, -40.58939592, 11.19933509
3980, -40.58446344, 10.89526938
3981, -39.32899845, -0.54459511
3982, -39.71844208, -0.09735067
3983, -39.24194502, 0.30785042
3984, -39.28547174, -0.11837235
3985, -40.11078142, 0.32030282
3986, -40.13014458, -0.48563544
3987, -40.52248393, -0.06798196
3988, -40.12046300, -0.08266631
3989, -40.54930857, -0.86439490
3990, -39.75344088, -0.91082183
3991, -40.15137473, -0.88760837
3992, -39.35770155, -0.94327465
3993, -44.37120464, -4.65439379
3994, -44.80847995, -4.20961853
3995, -44.37286165, -3.73778288
3996, -43.93558633, -4.18255814
3997, -44.37203314, -4.19608833
3998, -43.93060594, -3.27055607
3999, -44.80464895, -3.28107733
4000, -44.36762744, -3.27581670
4001, -45.25251847, -3.76114187
4002, -45.24863190, -3.29142501
4003, -45.25020225, -4.69362383
4004, -45.25136036, -4.22738285
4005, -46.54218182, -7.15176239
4006, -47.01067512, -7.66432748
4007, -47.02109091, -7.18165043
4008, -46.50894591, -8.13613313
4009, -47.00447296, -8.15460503
4010, -46.04419631, -7.58101353
4011, -45.45948984, -8.06660576
4012, -45.98421788, -8.10136944
4013, -45.60681703, -7.05519838
4014, -46.07449942, -7.10348039
4015, -30.39620750, -4.05752506
4016, -30.26964631, -4.46684452
4017, -30.68587095, -4.58403951
4018, -30.54103922, -4.32078229
4019, -30.55910277, -5.00310028
4020, -30.99346279, -5.11968004
4021, -30.83966687, -4.85185978
4022, -30.40905889, -5.42463116
4023, -30.11656196, -4.86072989
4024, -29.96651807, -5.28226077
4025, -30.26281042, -5.14268053
4026, -29.71496477, -4.71968106
4027, -29.86804912, -4.32579568
4028, -29.99230554, -4.59326279
4029, -46.60671109, 4.37273010
4030, -47.05111428, 3.87123309
4031, -47.05335555, 4.34982659
4032, -46.59638081, 3.41778044
4033, -47.04819041, 3.39158253
4034, -46.15497130, 3.92274912
4035, -45.69454297, 3.47323823
4036, -46.14546189, 3.44550934
4037, -45.71684877, 4.42022985
4038, -46.16177993, 4.39647997
4039, -27.53416993, -4.61040783
4040, -27.06816026, -4.52678787
4041, -26.97258799, -4.98042550
4042, -27.25337896, -4.79541667
4043, -26.62274944, -4.43709333
4044, -27.17711802, -4.08299785
4045, -26.73170720, -3.99330332
4046, -26.89993373, -4.26004559
4047, -27.25216742, -3.63901390
4048, -27.61855647, -4.14771088
4049, -27.69360587, -3.70372693
4050, -27.43536194, -3.89336239
4051, -28.12947942, -4.23683135
4052, -27.83182468, -4.42361959
4053, -41.96063051, -12.17705714
4054, -41.68247382, -11.87095573
4055, -41.40906818, -12.15860000
4056, -41.68484934, -12.16782857
4057, -41.39347537, -11.57243527
4058, -41.95652896, -11.58747102
4059, -41.67500217, -11.57995315
4060, -42.26390717, -11.87003008
4061, -42.54182903, -11.57141840
4062, -42.24917900, -11.57944471
4063, -42.53235162, -12.18120674
4064, -42.24649106, -12.17913194
4065, -28.24900273, -2.48775045
4066, -27.85228972, -2.45548250
4067, -27.80502203, -2.85461474
4068, -28.20173504, -2.88688269
4069, -28.02701238, -2.67118260
4070, -27.74106360, -3.26679480
4071, -27.39583668, -2.80279322
4072, -27.33187824, -3.21497327
4073, -27.56845014, -3.03479401
4074, -26.97594822, -2.70728921
4075, -27.49178794, -2.42085528
4076, -27.23386808, -2.56407224
4077, -27.90307110, -2.09490720
4078, -27.69742952, -2.25788124
4079, -44.80189089, -5.12864749
4080, -45.23821657, -5.61778257
4081, -45.24420941, -5.15570320
4082, -44.78118164, -6.03399057
4083, -45.20636271, -6.53361119
4084, -45.22228964, -6.07569688
4085, -44.34324755, -6.44260164
4086, -44.36254406, -5.56015904
4087, -43.92460997, -5.96877011
4088, -44.35289580, -6.00138034
4089, -43.93185780, -5.08590534
4090, -44.36687435, -5.10727641
4091, -27.13190882, 4.93918272
4092, -27.29053272, 4.49467794
4093, -27.76195607, 4.62670088
4094, -27.44693245, 4.78294180
4095, -27.95387818, 4.20909051
4096, -28.40637930, 4.38683168
4097, -28.08416768, 4.50676628
4098, -28.14373555, 3.76232949
4099, -27.47625180, 4.03744610
4100, -27.66610917, 3.59068508
4101, -27.80999367, 3.89988780
4102, -27.00200808, 3.87997243
4103, -26.81628901, 4.33720427
4104, -27.14627040, 4.18732519
4105, -38.33414119, -3.34407321
4106, -38.70965487, -3.71649243
4107, -38.70808463, -3.33426793
4108, -38.32265370, -4.10551347
4109, -38.69796243, -4.49189105
4110, -38.70380865, -4.10419174
4111, -37.86111813, -4.47953016
4112, -37.99049147, -3.69868212
4113, -37.92580480, -4.08910614
4114, -37.99273476, -3.34756236
4115, -27.63836296, 1.06283123
4116, -27.41642661, 1.48173431
4117, -26.90931358, 1.25487895
4118, -27.27383827, 1.15885509
4119, -27.23563331, 1.92094662
4120, -27.90332927, 1.64878727
4121, -27.72253596, 2.08799959
4122, -27.56948129, 1.78486695
4123, -28.37754148, 1.80567609
4124, -28.07180562, 1.21957399
4125, -28.54601783, 1.37646281
4126, -28.22467355, 1.51262504
4127, -28.24528778, 0.82310874
4128, -27.94182537, 0.94296999
4129, -42.65072229, 11.54612282
4130, -42.32502574, 11.85733296
4131, -42.02725836, 11.54200197
4132, -42.33899032, 11.54406240
4133, -41.72455935, 11.84654774
4134, -41.44115630, 11.53314627
4135, -41.73420733, 11.53757412
4136, -41.42609736, 12.14632061
4137, -41.98568685, 12.16492855
4138, -41.70589211, 12.15562458
4139, -42.56841385, 12.18063822
4140, -42.27705035, 12.17278338
4141, -18.79625423, 2.79370624
4142, -19.24470296, 2.45481998
4143, -19.54820593, 2.91985381
4144, -19.17223008, 2.85678002
4145, -19.75570893, 2.03099495
4146, -18.90112680, 1.97764875
4147, -19.41213277, 1.55382373
4148, -19.32841787, 2.00432185
4149, -18.56300422, 1.55636860
4150, -18.47768086, 2.34428689
4151, -18.13955829, 1.92300674
4152, -18.52034254, 1.95032775
4153, -18.04325926, 2.69004062
4154, -18.41975674, 2.74187343
4155, -41.82362030, -4.56988267
4156, -41.39310751, -4.97871279
4157, -41.78959418, -5.44102314
4158, -42.22010697, -5.03219301
4159, -41.80660724, -5.00545290
4160, -42.17982220, -5.98336838
4161, -41.32160571, -5.81331294
4162, -41.71183373, -6.35565818
4163, -41.75071395, -5.89834066
4164, -40.89517083, -6.16060992
4165, -40.97819388, -5.36431102
4166, -40.93668235, -5.76246047
4167, -41.01605751, -4.53680018
4168, -40.99712570, -4.95055560
4169, -29.92590362, 3.97204375
4170, -30.07291908, 3.39367794
4171, -30.63259155, 3.54389830
4172, -30.48557608, 4.12226411
4173, -30.27924758, 3.75797102
4174, -31.16197933, 3.67447762
4175, -30.75909704, 3.03753956
4176, -31.28848481, 3.16811887
4177, -30.96053818, 3.35600859
4178, -30.89789892, 2.53534414
4179, -30.23336016, 2.89699678
4180, -30.37216204, 2.39480137
4181, -30.56562954, 2.71617046
4182, -29.70604596, 2.73058626
4183, -29.54560488, 3.22726742
4184, -29.88948252, 3.06213210
4185, -29.35647938, 3.70249569
4186, -28.83716283, 3.50999565
4187, -29.02628833, 3.03476738
4188, -29.19138386, 3.36863153
4189, -28.34194773, 3.31401123
4190, -28.63895065, 3.95831391
4191, -28.49044919, 3.63616257
4192, -29.11290747, 4.18614301
4193, -28.88033613, 4.61466079
4194, -28.75964339, 4.28648735
4195, -29.68233171, 4.45569107
4196, -29.51940555, 4.07909338
4197, -37.50047356, -4.91287399
4198, -37.96510743, -5.31704694
4199, -38.32575200, -4.88370311
4200, -37.91311278, -4.89828855
4201, -38.71275082, -5.26795507
4202, -38.70535662, -4.87992306
4203, -38.36793091, -5.64742083
4204, -38.74460864, -6.01225635
4205, -38.72867973, -5.64010571
4206, -38.05525961, -6.05299592
4207, -37.65243613, -5.72262203
4208, -38.01018352, -5.68502143
4209, -35.17246557, 8.34816956
4210, -35.27218830, 7.92808706
4211, -35.71454099, 8.04744152
4212, -35.44350328, 8.19780554
4213, -35.38314431, 7.53565272
4214, -34.89225638, 7.81653431
4215, -35.00321238, 7.42409997
4216, -35.13770034, 7.67609351
4217, -34.48340074, 7.65801841
4218, -34.73765336, 8.22444586
4219, -34.32879772, 8.06592996
4220, -34.61052705, 7.94123213
4221, -34.63483951, 8.70615415
4222, -34.90365254, 8.52716185
4223, -43.10142479, 4.55820318
4224, -43.51892185, 4.08896292
4225, -43.96047401, 4.51814961
4226, -43.53094940, 4.53817639
4227, -43.91808488, 3.60445672
4228, -43.06432739, 3.67782439
4229, -43.46349042, 3.19331818
4230, -43.49120614, 3.64114055
4231, -42.63179481, 3.28288892
4232, -42.67956623, 4.13357270
4233, -42.65568052, 3.70823081
4234, -42.68482046, 4.56761675
4235, -32.62164805, 2.48456289
4236, -32.79228692, 2.00351889
4237, -33.29883726, 2.19136080
4238, -33.12819839, 2.67240479
4239, -32.96024265, 2.33796184
4240, -33.79386850, 2.36407197
4241, -33.45647595, 1.71650326
4242, -33.95150719, 1.88921444
4243, -33.62517222, 2.04028762
4244, -33.61375076, 1.28523168
4245, -33.00742524, 1.55382475
4246, -33.31058800, 1.41952821
4247, -32.27400697, 1.74281605
4248, -32.64071610, 1.64832040
4249, -41.15556109, 11.82914075
4250, -40.87366833, 11.51463950
4251, -41.15741231, 11.52389288
4252, -40.59806175, 11.80341305
4253, -40.31378935, 11.48810864
4254, -40.59372884, 11.50137407
4255, -40.32674794, 12.09706052
4256, -40.87483850, 12.12398916
4257, -40.60079322, 12.11052484
4258, -41.15046793, 12.13515488
4259, -40.86311168, -12.13211196
4260, -40.57769270, -11.81521567
4261, -40.31810570, -12.10074035
4262, -40.59060869, -12.11642615
4263, -40.28936832, -11.49847642
4264, -40.84077126, -11.53945308
4265, -40.55244688, -11.22271383
4266, -40.56506979, -11.51896475
4267, -41.10744154, -11.26234542
4268, -41.12680509, -11.84954293
4269, -41.11712331, -11.55594418
4270, -41.13608993, -12.14535598
4271, -37.01436003, -4.67064252
4272, -36.74564819, -5.21182465
4273, -37.23176172, -5.45405612
4274, -37.12306087, -5.06234932
4275, -36.96356995, -5.88481734
4276, -37.38424435, -6.15338325
4277, -37.30800304, -5.80371969
4278, -36.73872603, -6.31403377
4279, -36.54083619, -5.66900456
4280, -36.31599228, -6.09822100
4281, -36.63978111, -5.99151917
4282, -36.08358398, -5.47997955
4283, -36.28839598, -5.02279963
4284, -36.41461609, -5.34590210
4285, -42.29490369, -9.03512433
4286, -41.98285342, -9.29357571
4287, -42.26388055, -9.63207405
4288, -42.57593081, -9.37362267
4289, -42.27939212, -9.33359919
4290, -42.53349924, -9.95795548
4291, -41.95653113, -9.87823016
4292, -42.24501518, -9.91809282
4293, -41.67760219, -9.55524617
4294, -41.37897470, -9.81630445
4295, -41.66775292, -9.84726730
4296, -41.39797452, -9.22294484
4297, -41.70322575, -8.96127438
4298, -41.69041397, -9.25826028
4299, -36.28915580, 1.13934416
4300, -35.86845701, 0.93876337
4301, -36.05921697, 0.53390549
4302, -36.47991576, 0.73448628
4303, -36.17418639, 0.83662483
4304, -36.32121208, 0.07294408
4305, -35.62056754, 0.30209817
4306, -35.97088981, 0.18752113
4307, -35.39318749, 0.75767911
4308, -34.86812476, 0.49489560
4309, -35.24434615, 0.39849689
4310, -35.22169798, 1.21540292
4311, -35.69696750, 1.39648718
4312, -35.54507750, 1.07708314
4313, -28.68696597, 0.94019144
4314, -29.15476297, 1.07446153
4315, -29.01381483, 1.51073289
4316, -28.85039040, 1.22546217
4317, -29.62746468, 1.19224752
4318, -29.27369979, 0.62541328
4319, -29.74640150, 0.74319927
4320, -29.45058224, 0.90883040
4321, -29.38119213, 0.18647036
4322, -28.81415091, 0.52282348
4323, -28.92164325, 0.08388057
4324, -29.09767152, 0.35464692
4325, -28.37247272, 0.40574078
4326, -28.52971934, 0.67296611
4327, -46.60685155, -11.08148014
4328, -47.06406178, -11.54760759
4329, -47.05342577, -11.06958622
4330, -46.64739512, -12.02837682
4331, -47.07369756, -12.02380380
4332, -46.19294591, -11.56880662
4333, -45.79555080, -12.04042979
4334, -46.22147296, -12.03440331
4335, -45.71888205, -11.11680799
4336, -46.16286680, -11.09914407
4337, -41.25054749, -7.67354186
4338, -40.92453459, -7.92491338
4339, -41.17050437, -8.28143937
4340, -41.49651726, -8.03006785
4341, -41.21052593, -7.97749062
4342, -41.43380041, -8.62497193
4343, -40.85842867, -8.54511152
4344, -41.12172471, -8.88864408
4345, -41.14611454, -8.58504172
4346, -40.54210979, -8.81915393
4347, -40.58600124, -8.19761037
4348, -40.26968236, -8.47165278
4349, -40.56405552, -8.50838215
4350, -40.31844979, -7.83300132
4351, -40.65698314, -7.56030433
4352, -40.62149219, -7.87895735
4353, -37.59461328, -7.42696717
4354, -37.34750568, -7.73951459
4355, -37.65976370, -8.01892001
4356, -37.90687131, -7.70637259
4357, -37.62718849, -7.72294359
4358, -37.95039412, -8.31147926
4359, -37.40785749, -8.30317602
4360, -37.69848791, -8.59573527
4361, -37.67912581, -8.30732764
4362, -37.17162534, -8.56145462
4363, -37.13498561, -8.03781850
4364, -37.15330548, -8.29963656
4365, -37.04175983, -7.50451933
4366, -37.08837272, -7.77116891
4367, -44.41048380, 4.95223198
4368, -44.85403403, 5.38974513
4369, -44.42522943, 5.86312483
4370, -44.41785661, 5.40767841
4371, -44.86719438, 6.30291898
4372, -44.43984754, 6.76662804
4373, -44.43253849, 6.31487644
4374, -45.30693036, 6.75355608
4375, -45.29938819, 5.83561527
4376, -45.30315927, 6.29458567
4377, -45.28612940, 4.91120422
4378, -45.29275880, 5.37340974
4379, -39.09458370, 7.84500303
4380, -38.82137476, 8.14156242
4381, -38.51473644, 7.84167518
4382, -38.78794538, 7.54511579
4383, -38.80466007, 7.84333910
4384, -38.22200025, 7.56182095
4385, -38.26139713, 8.12348274
4386, -37.96866095, 7.84362851
4387, -38.24169869, 7.84265184
4388, -37.99617540, 8.39461786
4389, -38.54713251, 8.42254119
4390, -38.28191078, 8.69367631
4391, -38.27165396, 8.40857952
4392, -38.83853960, 8.72869510
4393, -39.11278185, 8.44771633
4394, -38.82995718, 8.43512876
4395, -40.52245481, -10.03258337
4396, -40.81038580, -9.75828005
4397, -40.52656860, -9.42920509
4398, -40.23863761, -9.70350841
4399, -40.52451171, -9.73089423
4400, -40.24476960, -9.09303338
4401, -40.82390879, -9.15532564
4402, -40.53433920, -9.12417951
4403, -41.10015861, -9.48962641
4404, -41.11094166, -9.18913524
4405, -41.08920190, -10.08495809
4406, -41.09468025, -9.78729225
4407, -40.66293186, 3.01512202
4408, -41.01128551, 2.61610246
4409, -41.41534631, 2.98376919
4410, -41.03913908, 2.99944561
4411, -41.76394034, 2.55840067
4412, -42.18427314, 2.92302548
4413, -41.79980972, 2.95339734
4414, -42.09050236, 2.15111527
4415, -41.35363496, 2.22034990
4416, -41.72206866, 2.18573259
4417, -40.60727832, 2.25707388
4418, -40.98045664, 2.23871189
4419, -33.89376172, 7.86788210
4420, -33.50244108, 7.65136949
4421, -33.72896594, 7.25843108
4422, -34.12028658, 7.47494369
4423, -33.81136383, 7.56315659
4424, -33.98308759, 6.88561806
4425, -33.37334102, 7.02695504
4426, -33.62746266, 6.65414202
4427, -33.67821430, 6.95628655
4428, -32.97547669, 6.76934112
4429, -33.11104049, 7.40090073
4430, -33.04325859, 7.08512093
4431, -33.19633833, 8.06631324
4432, -33.15368941, 7.73360699
4433, -25.02482636, -3.91024470
4434, -25.39378329, -4.04734089
4435, -25.55237760, -3.67710793
4436, -25.18342067, -3.54001174
4437, -25.28860198, -3.79367631
4438, -25.68479678, -3.30550824
4439, -25.92239388, -3.78941504
4440, -26.05481307, -3.41781534
4441, -25.80359533, -3.54746164
4442, -26.32249629, -3.90779550
4443, -25.78368577, -4.19536668
4444, -26.18378817, -4.31374714
4445, -26.05309103, -4.05158109
4446, -25.61879376, -4.58495007
4447, -25.22889127, -4.43692428
4448, -25.50628852, -4.31614548
4449, -41.65220796, 8.69734659
4450, -41.97502211, 8.97900935
4451, -41.70875728, 9.32824815
4452, -41.38594313, 9.04658538
4453, -41.68048262, 9.01279737
4454, -41.42243689, 9.66543740
4455, -42.02318828, 9.63146266
4456, -41.72281259, 9.64845003
4457, -42.32459566, 9.28197629
4458, -42.65231571, 9.59803127
4459, -42.33775200, 9.61474697
4460, -42.60979804, 8.90624434
4461, -42.26022449, 8.60327741
4462, -42.29241007, 8.94262685
4463, -39.14230846, 9.62681620
4464, -39.41676705, 9.34693783
4465, -39.70589605, 9.66006028
4466, -39.43143746, 9.93993865
4467, -39.42410225, 9.64343824
4468, -39.99536751, 9.97091214
4469, -39.98154275, 9.37135412
4470, -40.27101421, 9.68220599
4471, -39.98845513, 9.67113313
4472, -40.25804101, 9.08547192
4473, -39.69365027, 9.06633914
4474, -39.97014853, 8.78045694
4475, -39.97584564, 9.07590553
4476, -39.40379417, 8.75789048
4477, -39.12691095, 9.03848917
4478, -39.41028061, 9.05241415
4479, -38.12406711, 7.01362308
4480, -38.44324725, 7.25191912
4481, -38.17303368, 7.28772201
4482, -38.71381085, 6.91781428
4483, -39.05850898, 7.21101094
4484, -38.75087811, 7.23146503
4485, -38.98236357, 6.47150228
4486, -38.28700937, 6.64711706
4487, -38.55556208, 6.20080506
4488, -38.63468647, 6.55930967
4489, -37.90187287, 6.46341441
4490, -38.01296999, 6.73851875
4491, -31.44485273, -5.21310050
4492, -31.88835132, -5.29361648
4493, -31.99970842, -4.87715578
4494, -31.72228057, -5.04512814
4495, -32.43986733, -4.95884602
4496, -32.55547662, -4.54303124
4497, -32.27759252, -4.71009351
4498, -32.87313303, -5.03788354
4499, -32.32767123, -5.36599987
4500, -32.60040213, -5.20194171
4501, -31.78788791, -5.70339226
4502, -32.05777957, -5.53469607
4503, -33.64087535, -2.48107512
4504, -34.09465894, -2.57541550
4505, -33.93207225, -2.30825799
4506, -33.96342012, -3.01073865
4507, -34.41767073, -3.10752814
4508, -34.25616484, -2.84147182
4509, -33.83243237, -3.44377467
4510, -33.51222696, -2.91800851
4511, -33.38123921, -3.35104453
4512, -33.67232966, -3.18089159
4513, -33.06113061, -2.82689194
4514, -33.35100298, -2.65398353
4515, -40.44723343, 6.68557407
4516, -40.05224172, 6.96429970
4517, -39.74803235, 6.56589793
4518, -40.14302406, 6.28717231
4519, -40.09763289, 6.62573600
4520, -39.35473719, 6.13990857
4521, -39.37565874, 6.89749164
4522, -39.36519796, 6.51870011
4523, -39.70647242, 7.23867907
4524, -39.38932266, 7.55219837
4525, -39.38249070, 7.22484500
4526, -39.99654073, 7.59527144
4527, -40.34231003, 7.32089207
4528, -40.02439123, 7.27978557
4529, -40.26263449, 2.65150349
4530, -39.85415691, 2.28791790
4531, -40.19880073, 1.89348828
4532, -40.23071761, 2.27249589
4533, -39.43985323, 1.93481109
4534, -39.51627466, 2.68839110
4535, -39.10197098, 2.33528430
4536, -39.47806395, 2.31160110
4537, -39.18578907, 3.07276581
4538, -39.91902354, 3.03643937
4539, -39.58853795, 3.42081408
4540, -39.55240631, 3.05460259
4541, -40.31932091, 3.40005790
4542, -40.29097770, 3.02578070
4543, -39.01357472, 1.57448913
4544, -39.35779597, 1.15709132
4545, -39.78407448, 1.51741328
4546, -39.39882460, 1.54595121
4547, -40.13958370, 1.11709993
4548, -40.16919221, 1.50529410
4549, -39.72813551, 0.71918953
4550, -40.12518256, 0.71870137
4551, -38.87160549, 0.74575221
4552, -39.29987050, 0.73247087
4553, -40.81082624, -10.35505170
4554, -41.09486229, -10.67398464
4555, -41.09203210, -10.37947136
4556, -40.82244464, -10.94790857
4557, -41.10115192, -10.96816503
4558, -40.53467922, -10.62832478
4559, -40.26468146, -10.90313004
4560, -40.54356305, -10.92551931
4561, -40.24630779, -10.30585646
4562, -40.52856702, -10.33045408
4563, -40.34688508, 4.13615926
4564, -39.96581266, 3.76639708
4565, -40.33310299, 3.76810858
4566, -39.63664860, 4.12670471
4567, -39.25937389, 3.78112170
4568, -39.61259328, 3.77375939
4569, -39.30245291, 4.45011374
4570, -39.97579370, 4.47738730
4571, -39.64159801, 4.80079634
4572, -39.63912331, 4.46375052
4573, -40.33080497, 4.86299607
4574, -40.33884502, 4.49957766
4575, -39.18485505, 10.80092092
4576, -39.45210765, 10.52857188
4577, -39.74096849, 10.84815118
4578, -39.47371589, 11.12050022
4579, -39.46291177, 10.82453605
4580, -40.02853910, 11.16698442
4581, -40.01249525, 10.56732756
4582, -40.02051718, 10.86715599
4583, -39.72211791, 10.25425937
4584, -40.00393138, 10.26911985
4585, -39.16142720, 10.21425116
4586, -39.44177255, 10.23425526
4587, -32.07622784, 5.65451036
4588, -32.20637206, 5.30942419
4589, -32.55567098, 5.44176021
4590, -32.31594941, 5.54813528
4591, -32.32479595, 4.91956018
4592, -31.80443974, 5.18980269
4593, -31.92286364, 4.79993868
4594, -32.06461785, 5.05468143
4595, -31.41750802, 5.10115501
4596, -31.72086763, 5.56673012
4597, -31.33393592, 5.47808244
4598, -31.56918783, 5.33394256
4599, -31.63825753, 5.91548232
4600, -31.85724268, 5.78499634
4601, -26.42787768, -3.48921273
4602, -26.51631253, -3.11003637
4603, -26.28556280, -3.26392585
4604, -26.91679943, -3.15067990
4605, -26.74613038, -2.90866279
4606, -26.83708860, -3.57472054
4607, -27.08448342, -3.39484690
4608, -26.57979244, -3.74125802
4609, -30.88381634, -5.53266599
4610, -31.33520628, -5.62608645
4611, -31.16433454, -5.37288324
4612, -31.24639804, -6.03728169
4613, -31.69907966, -6.11458750
4614, -31.51714297, -5.87033698
4615, -31.16412650, -6.46364225
4616, -30.76533863, -5.95713340
4617, -30.68306709, -6.38349396
4618, -30.96473257, -6.21038783
4619, -30.29058118, -5.84909858
4620, -30.58719876, -5.69088228
4621, -38.76897495, 2.74179500
4622, -38.34602797, 2.39796498
4623, -38.67902400, 1.99145428
4624, -38.72399948, 2.36662464
4625, -37.85873076, 2.03411923
4626, -38.02073142, 2.83059718
4627, -37.53343422, 2.46675142
4628, -37.93973109, 2.43235820
4629, -37.73052961, 3.24474189
4630, -38.45429167, 3.13520126
4631, -38.16408986, 3.54934597
4632, -38.09241064, 3.18997157
4633, -38.87110579, 3.46617207
4634, -38.82004037, 3.10398354
4635, -45.32057731, -11.59758103
4636, -44.94169318, -12.05715123
4637, -45.36862199, -12.04879051
4638, -44.45728540, -11.64860853
4639, -44.09892556, -12.09145730
4640, -44.52030937, -12.07430427
4641, -43.90576577, -11.22349323
4642, -44.83071948, -11.16414243
4643, -44.27919984, -10.73902713
4644, -44.36824262, -11.19381783
4645, -45.22902422, -10.68336940
4646, -45.27480077, -11.14047521
4647, -38.03643724, 9.52595406
4648, -38.30237247, 9.26526206
4649, -38.58655535, 9.57962101
4650, -38.32062012, 9.84031300
4651, -38.31149629, 9.55278753
4652, -38.87285853, 9.89565840
4653, -38.85600527, 9.31077881
4654, -38.86443190, 9.60321861
4655, -38.56763393, 9.00098474
4656, -38.84727244, 9.01973695
4657, -38.01664932, 8.95795363
4658, -38.29214162, 8.97946919
4659, -44.02104603, 7.21254160
4660, -43.62241146, 7.66836911
4661, -43.16890860, 7.25059652
4662, -43.59497732, 7.23156906
4663, -42.82541605, 7.74974804
4664, -42.27648928, 7.36048034
4665, -42.72269894, 7.30553843
4666, -42.50979084, 8.18289049
4667, -43.24793290, 8.08964058
4668, -42.93230768, 8.52278303
4669, -42.87886187, 8.13626554
4670, -43.66758813, 8.48858389
4671, -44.04206669, 8.06731242
4672, -43.64499979, 8.07847650
4673, -32.03735543, -7.32843144
4674, -32.05535372, -6.93342910
4675, -31.59180786, -6.91399592
4676, -31.57380957, -7.30899826
4677, -31.81458165, -7.12121368
4678, -31.11752939, -6.87078955
4679, -31.63840496, -6.50684862
4680, -31.37796718, -6.68881908
4681, -32.08397869, -6.55747910
4682, -31.89152917, -6.33603330
4683, -32.48526754, -6.96103174
4684, -32.28462311, -6.75925542
4685, -39.39648919, 8.16258671
4686, -39.68750151, 8.47276086
4687, -39.40014168, 8.46023860
4688, -39.97189184, 8.19098055
4689, -40.25453886, 8.49867664
4690, -39.97102019, 8.48571875
4691, -40.27720442, 7.91646995
4692, -39.69122816, 7.86978205
4693, -39.98421629, 7.89312600
4694, -39.39290593, 7.85739254
4695, -40.92265820, -0.43722940
4696, -41.29671927, -0.02553271
4697, -40.90960160, -0.04675733
4698, -41.70199537, -0.36624886
4699, -42.04955816, 0.05389640
4700, -41.67313872, 0.01418185
4701, -42.12545075, -0.72995564
4702, -41.33652386, -0.81086646
4703, -41.75997925, -1.17457325
4704, -41.73098731, -0.77041105
4705, -40.96317424, -1.23803196
4706, -40.94291622, -0.83763068
4707, -38.95818432, 4.14950346
4708, -38.56991622, 3.83455383
4709, -38.91464505, 3.80783776
4710, -38.29578804, 4.22379942
4711, -37.88996168, 3.93859156
4712, -38.22993895, 3.88657269
4713, -38.05712021, 4.58732840
4714, -38.67480915, 4.47629292
4715, -38.36596468, 4.53181066
4716, -38.98863103, 4.46320333
4717, -45.22822569, 3.02919756
4718, -44.74136420, 2.57347448
4719, -45.17943484, 2.05663256
4720, -45.20383026, 2.54291506
4721, -44.68595543, 1.58087687
4722, -45.14891846, 1.06152836
4723, -45.16417665, 1.55908046
4724, -44.10111497, 1.08762546
4725, -44.24357508, 2.14277540
4726, -43.65873462, 1.64952399
4727, -44.17234503, 1.61520043
4728, -43.83470762, 2.67282496
4729, -44.33249675, 3.10352405
4730, -44.28803591, 2.62314972
4731, -32.95602880, 3.15314786
4732, -32.79442028, 3.62767355
4733, -32.29956304, 3.45680428
4734, -32.46117155, 2.98227859
4735, -32.62779592, 3.30497607
4736, -31.80619919, 3.31255825
4737, -32.16217546, 3.92902589
4738, -31.66881162, 3.78477985
4739, -31.98418733, 3.62079207
4740, -32.02287745, 4.36858579
4741, -32.61994741, 4.07686913
4742, -32.48064940, 4.51642904
4743, -32.32141243, 4.22272746
4744, -33.08785132, 4.25685887
4745, -33.26232419, 3.80766329
4746, -32.94113580, 3.94226621
4747, -38.84296730, -9.87047592
4748, -38.58295767, -10.13591017
4749, -38.87153963, -10.46304764
4750, -39.13154926, -10.19761339
4751, -38.85725346, -10.16676178
4752, -39.16075557, -10.79189062
4753, -38.61573065, -10.72489921
4754, -38.90494658, -11.05374219
4755, -38.88824311, -10.75839491
4756, -38.36176743, -10.98141088
4757, -38.32529591, -10.39597099
4758, -38.07133270, -10.65248267
4759, -38.34353167, -10.68869094
4760, -38.03551816, -10.07134662
4761, -38.29317992, -9.81128579
4762, -38.30923792, -10.10362839
4763, -42.53273866, 2.44713267
4764, -42.98026033, 2.80699611
4765, -42.58226674, 2.86501079
4766, -43.35147754, 2.28650289
4767, -43.40748398, 2.73991054
4768, -42.82331606, 1.98588786
4769, -43.24102534, 1.81770592
4770, -42.45690921, 2.06850156
4771, -39.38420846, -8.70279257
4772, -39.68380302, -8.40963189
4773, -39.39370049, -8.07019963
4774, -39.09410593, -8.36336030
4775, -39.38895447, -8.38649610
4776, -39.09431350, -7.72185483
4777, -39.70802362, -7.76484931
4778, -39.40863663, -7.41650451
4779, -39.40116856, -7.74335207
4780, -40.03535162, -7.47281183
4781, -39.99112179, -8.12503880
4782, -40.01323670, -7.79892531
4783, -39.96236359, -8.75624588
4784, -39.97674269, -8.44064234
4785, -38.09012682, 10.66725788
4786, -38.34834733, 10.41391217
4787, -38.63607273, 10.73822804
4788, -38.37785221, 10.99157374
4789, -38.36309977, 10.70274296
4790, -38.92352030, 11.06195953
4791, -38.89740748, 10.47718943
4792, -38.91046389, 10.76957448
4793, -38.60883881, 10.15859667
4794, -38.88513301, 10.18642392
4795, -38.06012864, 10.09562850
4796, -38.33448373, 10.12711259
4797, -40.53016992, 8.78759504
4798, -40.82038059, 9.08090235
4799, -40.54825168, 9.37877924
4800, -40.53921080, 9.08318714
4801, -40.84207131, 9.68227791
4802, -40.55654276, 9.68224195
4803, -41.12092761, 9.36403550
4804, -41.13225410, 9.67385766
4805, -41.08539611, 8.76345223
4806, -41.10316186, 9.06374387
4807, -39.67325011, -9.03525428
4808, -39.95565611, -9.37204177
4809, -39.95900985, -9.06414383
4810, -39.67570190, -9.64803303
4811, -39.95868340, -9.97949967
4812, -39.95716976, -9.67577072
4813, -39.39869777, -9.92590679
4814, -39.38873378, -9.31852133
4815, -39.11172965, -9.59639509
4816, -39.39371577, -9.62221406
4817, -39.09969212, -8.98605962
4818, -39.38647112, -9.01065695
4819, -42.90770517, -11.82493282
4820, -43.17052632, -11.47229584
4821, -42.85617768, -11.52185712
4822, -43.64094578, -11.73518337
4823, -43.53814604, -11.34789454
4824, -43.29202022, -12.14372608
4825, -43.69547289, -12.11759169
4826, -42.91218592, -12.16246641
4827, -38.42077842, -6.36990294
4828, -38.77110995, -6.71861192
4829, -39.09494018, -6.36096533
4830, -38.75785930, -6.36543414
4831, -39.09596188, -7.05647438
4832, -38.46272596, -7.05172778
4833, -38.78757789, -7.38959024
4834, -38.77934392, -7.05410108
4835, -38.18050305, -7.39143014
4836, -38.12686612, -6.74190922
4837, -37.84464321, -7.08161158
4838, -38.15368458, -7.06666968
4839, -37.76134730, -6.42500219
4840, -38.09106286, -6.39745257
4841, -31.92141506, 6.65215390
4842, -31.53467549, 6.62357453
4843, -31.56805017, 6.27628865
4844, -31.74473261, 6.46422127
4845, -31.10408388, 6.58406080
4846, -31.49554393, 6.99839207
4847, -31.06495232, 6.95887834
4848, -31.29981390, 6.79122644
4849, -31.48116472, 7.36671069
4850, -31.91107026, 7.01806606
4851, -31.69611749, 7.19238838
4852, -32.14210647, 6.83458186
4853, -43.65983880, 11.19066922
4854, -43.32066126, 10.89548237
4855, -43.62962212, 10.57616862
4856, -43.64473046, 10.88341892
4857, -43.31519757, 10.25342391
4858, -43.64360482, 9.94733276
4859, -43.63661347, 10.26175069
4860, -42.98927704, 9.93301159
4861, -42.99338667, 10.58391806
4862, -42.99133186, 10.25846482
4863, -42.99524177, 11.22191090
4864, -42.99431422, 10.90291448
4865, -40.04683136, 11.76345791
4866, -39.76158111, 11.44233369
4867, -40.03768523, 11.46522116
4868, -39.49986325, 11.70868946
4869, -39.21199803, 11.38685600
4870, -39.48678957, 11.41459484
4871, -39.24200956, 11.97187204
4872, -39.78379793, 12.03705781
4873, -39.51290374, 12.00446493
4874, -40.05527293, 12.06705917
4875, -34.61807784, -0.80178771
4876, -34.48118620, -1.23871017
4877, -34.77160196, -1.07631654
4878, -34.02494785, -1.14147425
4879, -34.18809186, -1.41713792
4880, -34.14112454, -0.67510014
4881, -33.67459526, -0.59383288
4882, -33.84977155, -0.86765356
4883, -34.32200344, -0.14661170
4884, -34.47004064, -0.47419970
4885, -24.57944299, 1.22847367
4886, -24.93257620, 0.94147005
4887, -24.93273669, 1.26492053
4888, -24.59070851, 0.66105931
4889, -24.93248387, 0.62930472
4890, -24.27088214, 0.90834684
4891, -23.98228860, 0.61280215
4892, -24.28649855, 0.63693073
4893, -23.89060388, 1.20940034
4894, -24.23502343, 1.21893700
4895, -38.95577134, 11.64405004
4896, -38.66729361, 11.31915357
4897, -38.93964582, 11.35300478
4898, -38.41450988, 11.56967749
4899, -38.12506848, 11.24209766
4900, -38.39618105, 11.28062562
4901, -38.16297782, 11.82707947
4902, -38.70193575, 11.90199837
4903, -38.43245679, 11.86453892
4904, -38.97197265, 11.93693521
4905, -17.62110132, -1.27846948
4906, -17.25089400, -1.65460436
4907, -17.61074398, -2.16545895
4908, -17.98095130, -1.78932408
4909, -17.61592265, -1.72196422
4910, -17.98469655, -2.64901148
4911, -17.24570018, -2.57631241
4912, -17.61519836, -2.61266195
4913, -16.87248259, -2.05635743
4914, -16.87285009, -2.53815621
4915, -16.87841140, -1.09824692
4916, -16.87544700, -1.57730218
4917, -16.90777279, 2.08825624
4918, -17.28099037, 2.60821122
4919, -16.89049519, 2.55410561
4920, -17.70459688, 2.23838690
4921, -17.66212482, 2.64912592
4922, -17.38985652, 1.79110612
4923, -17.76470740, 1.85705643
4924, -16.94492826, 1.64555306
4925, -43.49761986, -2.81967664
4926, -43.07589940, -3.27270939
4927, -43.50888547, -3.72358882
4928, -43.50325267, -3.27163273
4929, -43.07948571, -4.16551978
4930, -43.50618658, -4.62448910
4931, -43.50753602, -4.17403896
4932, -42.65558998, -4.59911358
4933, -42.66261563, -3.71571240
4934, -42.23871990, -4.14930620
4935, -42.65910280, -4.15741299
4936, -42.23944414, -3.27828712
4937, -42.65272790, -2.83528411
4938, -42.65767177, -3.27549826
4939, -39.45150969, -11.11745982
4940, -39.71301969, -10.84880577
4941, -39.42226557, -10.52323657
4942, -39.43688763, -10.82034819
4943, -39.68941408, -10.25152996
4944, -39.41048167, -10.22457168
4945, -39.97703848, -10.57788675
4946, -39.96786094, -10.27869321
4947, -40.00066266, -11.17404906
4948, -39.98885057, -10.87596790
4949, -24.29443733, -4.46802376
4950, -24.47449011, -4.11796576
4951, -24.08980468, -3.94058567
4952, -24.19212101, -4.20430471
4953, -24.65755300, -3.75366318
4954, -24.84176346, -4.27454727
4955, -24.74965823, -4.01410523
4956, -24.66801104, -4.65154707
4957, -24.94845116, -4.54423568
4958, -24.34793096, -4.76310048
4959, -47.04682349, 8.64126450
4960, -46.60271763, 8.15557903
4961, -47.05589414, 7.68739145
4962, -47.05135881, 8.16432797
4963, -46.61474254, 7.21163983
4964, -47.05737127, 7.21158914
4965, -46.17326113, 7.67544918
4966, -45.73799934, 7.20902649
4967, -46.17637094, 7.21033316
4968, -45.72086603, 8.12757667
4969, -46.15032252, 8.60770652
4970, -46.16179183, 8.14157785
4971, -30.67668118, 6.49831034
4972, -30.75281242, 6.11311234
4973, -31.18021512, 6.19886280
4974, -30.92844815, 6.34858657
4975, -31.25042248, 5.83805647
4976, -31.40923632, 6.05717256
4977, -30.86973616, 5.74568566
4978, -31.10183604, 5.61188405
4979, -30.35004240, 5.98844840
4980, -30.60988928, 5.86706703
4981, -26.22687560, 1.63714158
4982, -26.08281270, 2.10045793
4983, -25.53440715, 1.96565685
4984, -25.88064138, 1.80139922
4985, -25.93450678, 2.55671430
4986, -26.56786691, 2.22757075
4987, -26.41956099, 2.68382712
4988, -26.25118684, 2.39214253
4989, -27.06329462, 2.37800301
4990, -26.74020560, 1.77051436
4991, -26.90175011, 2.07425869
4992, -26.56809459, 1.44601027
4993, -30.61814782, -1.24378061
4994, -31.09830250, -1.43850557
4995, -31.28101460, -1.00804174
4996, -30.94958121, -1.12591117
4997, -31.68245341, -1.13194923
4998, -31.82804973, -0.73686573
4999, -31.55453217, -0.87245373
5000, -32.11815744, -1.24500865
5001, -31.54765760, -1.55719844
5002, -31.83290752, -1.40110355
5003, -30.96180952, -1.88285191
5004, -31.25473356, -1.72002517
5005, -26.17834409, 0.22959607
5006, -26.64706189, 0.06877446
5007, -26.51493343, 0.38798771
5008, -26.47052855, -0.32994057
5009, -26.80084103, -0.21969300
5010, -26.01270993, -0.20741994
5011, -25.85751607, -0.66557391
5012, -26.16402231, -0.49775724
5013, -25.48788615, -0.05279799
5014, -25.83311512, 0.08839904
5015, -40.99922950, -2.05337359
5016, -41.37810338, -1.62218630
5017, -40.98120187, -1.64570278
5018, -41.80292710, -2.00929577
5019, -42.18480297, -1.56168272
5020, -41.78145318, -1.59193451
5021, -42.22188841, -2.41474548
5022, -41.40895865, -2.45005885
5023, -41.82791995, -2.85550856
5024, -41.81542353, -2.43240217
5025, -41.02232546, -2.87685568
5026, -41.01077748, -2.46511463
5027, -37.20141485, 8.08151860
5028, -37.46627609, 8.35869835
5029, -37.22197977, 8.60754193
5030, -37.21169731, 8.34453027
5031, -37.74137828, 8.65353707
5032, -37.72107321, 8.09977913
5033, -37.73122574, 8.37665810
5034, -37.45394149, 7.82107142
5035, -37.71130122, 7.83234996
5036, -37.17666367, 7.79372369
5037, -29.51216394, -2.13527534
5038, -29.96393720, -2.17361327
5039, -30.02102191, -1.71277629
5040, -29.56924865, -1.67443836
5041, -29.76659292, -1.92402582
5042, -30.12707447, -1.17069273
5043, -30.51209526, -1.78586417
5044, -30.31958487, -1.47827845
5045, -30.39762897, -2.24643933
5046, -30.67971924, -2.06464562
5047, -29.87409962, -2.62210101
5048, -30.13586429, -2.43427017
5049, -42.62199640, -6.43556815
5050, -43.08011654, -5.94649705
5051, -42.63794234, -5.49429728
5052, -42.62996937, -5.96493271
5053, -43.07342535, -5.06121785
5054, -42.64676616, -5.04670543
5055, -43.49909657, -5.52263408
5056, -43.50264157, -5.07356159
5057, -43.50562994, -6.39263307
5058, -43.50236325, -5.95763358
5059, -44.03880614, 11.48963047
5060, -43.71131698, 11.83003420
5061, -43.33234964, 11.53107294
5062, -43.68557789, 11.51035171
5063, -42.98783015, 11.85528486
5064, -42.99153596, 11.53859788
5065, -43.33608297, 12.17464665
5066, -42.95224841, 12.17764243
5067, -44.12523401, 12.15538755
5068, -43.73065849, 12.16501710
5069, -44.47068079, 11.76340682
5070, -44.92878012, 12.10801927
5071, -44.52700706, 12.13170341
5072, -45.27446410, 11.65943609
5073, -45.34556539, 12.07971804
5074, -44.75478290, 11.36524959
5075, -45.15991439, 11.22488190
5076, -44.39679452, 11.42744003
5077, -28.11550580, -3.74294841
5078, -28.16296352, -3.30601628
5079, -27.92828470, -3.50487161
5080, -28.56453400, -3.33253244
5081, -28.60330552, -2.91339885
5082, -28.38313452, -3.10970757
5083, -28.94815395, -3.34223811
5084, -28.54405810, -3.73329246
5085, -28.74610603, -3.53776528
5086, -28.33676876, -3.98506190
5087, -41.83545994, -3.71050660
5088, -41.42036034, -4.13108307
5089, -41.82954012, -4.14019463
5090, -41.02877527, -3.70658676
5091, -41.02241639, -4.12169347
5092, -41.42393575, -3.28772803
5093, -41.02555036, -3.29172122
5094, -41.83168994, -3.28300758
5095, -38.69753796, -11.89979989
5096, -38.40618636, -11.56501580
5097, -38.15905209, -11.82461626
5098, -38.42829502, -11.86220807
5099, -38.11352313, -11.23427184
5100, -38.65443066, -11.31215484
5101, -38.38397690, -11.27321334
5102, -38.94616012, -11.64041099
5103, -39.19667604, -11.38199833
5104, -38.92555335, -11.34707659
5105, -39.23679612, -11.97043147
5106, -38.96716704, -11.93511568
5107, -43.05577219, -2.38196258
5108, -42.62493269, -1.96142395
5109, -42.63883030, -2.39835403
5110, -43.01375148, -1.49300480
5111, -42.57362176, -1.09326357
5112, -42.59927723, -1.52734376
5113, -43.41681940, -1.00589454
5114, -43.46977832, -1.91623100
5115, -43.44329886, -1.46106277
5116, -43.48369909, -2.36795382
5117, -32.11206916, 0.48037510
5118, -32.02072546, 0.07299225
5119, -32.42839164, -0.00036966
5120, -32.27023040, 0.24000272
5121, -31.93707486, -0.32977951
5122, -31.62429582, 0.12994848
5123, -31.78068534, -0.09991552
5124, -31.65300343, 0.55583074
5125, -31.22665891, 0.55730562
5126, -31.42547737, 0.34362705
5127, -31.77381813, 1.06817900
5128, -31.94294365, 0.77427705
5129, -17.37469012, 0.06252856
5130, -17.66801663, -0.43207358
5131, -18.08358219, -0.18084580
5132, -17.72913616, -0.05915862
5133, -18.01066038, -0.95459223
5134, -17.27845757, -0.75595083
5135, -17.64455898, -0.85527153
5136, -16.90004617, -0.15770391
5137, -16.88922879, -0.62797542
5138, -16.93734506, 0.28126428
5139, -27.61500929, -0.58289010
5140, -28.10715264, -0.50244658
5141, -28.02960117, -0.08610401
5142, -27.82230523, -0.33449705
5143, -28.46365160, -0.00003060
5144, -28.20103695, 0.15981839
5145, -28.54878483, -0.42975174
5146, -29.00677647, -0.34584058
5147, -28.73521404, -0.17293559
5148, -28.62580348, -0.84522492
5149, -28.18417129, -0.91791976
5150, -28.36647806, -0.67383575
5151, -40.57006252, 7.66933637
5152, -40.81827765, 7.97061553
5153, -40.52541955, 8.21774910
5154, -40.54774103, 7.94354274
5155, -40.80105061, 8.50666751
5156, -40.52779474, 8.50267207
5157, -41.04257394, 8.20632714
5158, -41.32691943, 8.46311186
5159, -41.06398502, 8.48488968
5160, -41.25457183, 7.99120505
5161, -41.03027554, 7.75549344
5162, -41.03642474, 7.98091029
5163, -36.14859328, 7.61401190
5164, -36.17531629, 7.19270957
5165, -36.61512132, 7.21802935
5166, -36.38185730, 7.41602063
5167, -36.16627095, 6.80259078
5168, -35.80433194, 7.20817163
5169, -35.98530145, 7.00538120
5170, -35.74751927, 7.58689500
5171, -35.59373813, 7.37191217
5172, -35.93156714, 7.83072671
5173, -39.83268521, 5.86884361
5174, -40.25264902, 5.57876554
5175, -40.56298787, 5.99709424
5176, -40.19783654, 5.93296892
5177, -40.65542987, 5.26843532
5178, -39.92802412, 5.17332628
5179, -40.29172700, 5.22088080
5180, -39.55799066, 5.44553845
5181, -39.59979434, 5.12316739
5182, -39.45636392, 5.79272351
5183, -29.47837921, -0.27329265
5184, -29.94433840, -0.17387511
5185, -29.84715131, 0.28588790
5186, -29.66276526, 0.00629763
5187, -30.31421534, 0.39256113
5188, -30.21346553, 0.84987250
5189, -30.03030842, 0.56788020
5190, -30.75048406, 0.49579444
5191, -30.40227003, -0.03570138
5192, -30.57637704, 0.23004653
5193, -30.09755002, -0.67524697
5194, -30.24991003, -0.35547417
5195, -39.74298456, -11.44323493
5196, -40.03169022, -11.76766229
5197, -40.01617644, -11.47085568
5198, -39.77729902, -12.03758237
5199, -40.04770236, -12.06916136
5200, -39.48815091, -11.70777345
5201, -39.50704757, -12.00400692
5202, -39.46983030, -11.41261663
5203, -32.99862979, -4.62664773
5204, -33.12300692, -4.20558758
5205, -32.67985375, -4.12197109
5206, -32.83924177, -4.37430941
5207, -33.25285035, -3.78150351
5208, -33.56889995, -4.29604461
5209, -33.69874338, -3.87196054
5210, -33.41087515, -4.03877406
5211, -34.00973240, -4.39161515
5212, -33.43431746, -4.71307255
5213, -33.87514991, -4.80864309
5214, -33.72202493, -4.55234385
5215, -33.30882070, -5.12430836
5216, -33.15372525, -4.87547804
5217, -35.07598483, 1.70474988
5218, -34.58354933, 1.54965628
5219, -34.72926249, 1.06030932
5220, -34.90262366, 1.38252960
5221, -34.20406887, 0.92691558
5222, -34.34293114, 0.36150186
5223, -34.53609681, 0.71090559
5224, -33.72637284, 0.81157726
5225, -34.09144680, 1.40057000
5226, -33.90890982, 1.10607363
5227, -34.44360972, 2.03830072
5228, -34.26752826, 1.71943536
5229, -23.43941037, 2.84176887
5230, -23.50414263, 2.51690668
5231, -23.84125654, 2.57330126
5232, -23.77652428, 2.89816345
5233, -23.64033345, 2.70753506
5234, -24.19973789, 2.64346710
5235, -23.92514860, 2.23015572
5236, -24.06244324, 2.43681141
5237, -23.52825193, 2.17969960
5238, -23.59517322, 1.76516333
5239, -23.76016091, 1.99765952
5240, -23.17353893, 2.16304116
5241, -23.14942963, 2.50024823
5242, -23.33884078, 2.33997392
5243, -37.02031418, 10.49071302
5244, -37.27183944, 10.25636982
5245, -37.55430896, 10.58293435
5246, -37.30278370, 10.81727754
5247, -37.28731157, 10.53682368
5248, -37.83782803, 10.90991965
5249, -37.80660775, 10.34027257
5250, -37.82221789, 10.62509611
5251, -37.52479587, 10.02012684
5252, -37.77831676, 9.77548277
5253, -37.79246226, 10.05787767
5254, -37.24544695, 9.70048353
5255, -36.99249053, 9.93672652
5256, -37.25864320, 9.97842668
5257, -33.31318605, 4.87059731
5258, -32.88881926, 4.67502811
5259, -33.20051869, 4.56372809
5260, -32.73296581, 5.07815926
5261, -32.60680761, 4.79729415
5262, -33.09067965, 5.25488239
5263, -32.91338482, 5.61848334
5264, -32.82317532, 5.34832130
5265, -33.46875252, 5.46630441
5266, -33.39096929, 5.16845086
5267, -35.33383165, 2.77555140
5268, -35.43487260, 2.32243055
5269, -35.90070563, 2.42901302
5270, -35.61726864, 2.60228221
5271, -35.56217946, 1.84304199
5272, -34.94867797, 2.18413844
5273, -35.25542871, 2.01359021
5274, -34.81528987, 2.68470202
5275, -34.31022162, 2.53886430
5276, -34.62944979, 2.36150137
5277, -34.73997342, 3.25542105
5278, -35.03690254, 3.01548623
5279, -37.20976497, -9.66880182
5280, -37.46829693, -9.42489803
5281, -37.18927261, -9.10568287
5282, -36.93074065, -9.34958666
5283, -37.19951879, -9.38724234
5284, -36.91801335, -8.80595313
5285, -37.44288460, -8.86118435
5286, -37.18044898, -8.83356874
5287, -37.72568268, -9.16848897
5288, -37.98128598, -8.90303988
5289, -37.71208529, -8.88211212
5290, -38.00688058, -9.48874412
5291, -37.74949484, -9.74515318
5292, -37.73758876, -9.45682107
5293, -29.62587682, -3.83501772
5294, -29.70900440, -3.45670952
5295, -29.33751238, -3.38517383
5296, -29.48169460, -3.61009578
5297, -29.80232481, -3.04445334
5298, -30.10997611, -3.54133863
5299, -29.95615046, -3.29289598
5300, -29.99499806, -3.94972926
5301, -30.25309180, -3.79943184
5302, -29.74696297, -4.08040670
5303, -31.94579451, 2.81224393
5304, -32.10627100, 2.31452823
5305, -32.28372128, 2.64840341
5306, -31.55933362, 2.15681143
5307, -31.72706959, 1.58509924
5308, -31.91667030, 1.94981374
5309, -31.02915241, 2.02435102
5310, -31.42808013, 2.66780455
5311, -31.22861627, 2.34607779
5312, -31.61713966, 2.99018140
5313, -36.12941734, -9.50365851
5314, -36.39218283, -9.25735634
5315, -36.09819803, -8.93235605
5316, -35.83543255, -9.17865821
5317, -36.11380769, -9.21800728
5318, -35.80780897, -8.53380032
5319, -36.40249984, -8.70658989
5320, -36.10515440, -8.62019511
5321, -36.65275505, -9.02213793
5322, -36.66025660, -8.75627151
5323, -36.67016843, -9.58480507
5324, -36.66146174, -9.30347150
5325, -37.76129436, 9.21166005
5326, -37.48602332, 8.90724350
5327, -37.75133632, 8.93259856
5328, -37.23384492, 9.14778437
5329, -36.96980136, 8.84808281
5330, -37.22791234, 8.87766315
5331, -36.97611799, 9.38707914
5332, -37.50317389, 9.46118876
5333, -37.23964594, 9.42413395
5334, -37.76980556, 9.49357141
5335, -37.49728139, -9.99447584
5336, -37.78330471, -10.32066928
5337, -37.76639978, -10.03291123
5338, -37.53428782, -10.56695428
5339, -37.82231581, -10.89876767
5340, -37.80281026, -10.60971848
5341, -37.28613939, -10.80627379
5342, -37.24512178, -10.23617040
5343, -36.99697334, -10.47548990
5344, -37.26563058, -10.52122209
5345, -36.95760536, -9.91049638
5346, -37.22744337, -9.95248611
5347, -36.98678209, 6.71922459
5348, -37.00996981, 6.29521168
5349, -37.43507076, 6.32911777
5350, -37.21092643, 6.52417118
5351, -36.95902563, 5.74157028
5352, -36.51569320, 6.32269672
5353, -36.46474901, 5.76905531
5354, -36.73735941, 6.03213350
5355, -36.10621656, 6.37577670
5356, -36.57574759, 6.74951080
5357, -36.34098207, 6.56264375
5358, -36.80095170, 6.96862697
5359, -43.99984778, 9.61603019
5360, -44.40829830, 9.31909472
5361, -44.70921273, 9.74390942
5362, -44.35453025, 9.67996980
5363, -45.21183418, 9.44128248
5364, -45.53661037, 10.03835042
5365, -45.12291155, 9.89112992
5366, -45.67074752, 9.04861812
5367, -44.82290421, 8.94911882
5368, -45.28181755, 8.55645446
5369, -45.24682586, 8.99886847
5370, -44.45288870, 8.50574706
5371, -44.03828279, 8.87572295
5372, -44.43059350, 8.91242089
5373, -36.71524331, 9.07067518
5374, -36.47404146, 8.76514384
5375, -36.72192141, 8.80661332
5376, -36.20217491, 8.99669050
5377, -36.20012923, 8.70524124
5378, -36.45989071, 9.29969887
5379, -36.20446909, 9.52311333
5380, -36.20332200, 9.25990191
5381, -36.72076539, 9.61610283
5382, -36.71800435, 9.34338901
5383, -31.03320012, 4.63084158
5384, -31.46411732, 4.69166264
5385, -31.22535407, 4.86599829
5386, -31.56413113, 4.26030975
5387, -31.74349738, 4.53012422
5388, -31.05729884, 4.15000751
5389, -31.36305523, 3.96739368
5390, -30.75938810, 4.37655284
5391, -37.12552541, -6.53993449
5392, -37.50262836, -6.81155343
5393, -37.44343636, -6.48246834
5394, -37.25259844, -7.15690902
5395, -37.54862082, -7.11926030
5396, -36.90404253, -6.93465916
5397, -36.69320393, -7.28226948
5398, -36.97290118, -7.21958925
5399, -36.51724315, -6.70875844
5400, -36.82138428, -6.62434647
5401, -31.09991657, -8.09662819
5402, -31.08425137, -7.68646783
5403, -30.58741731, -7.67988165
5404, -30.60308250, -8.09004200
5405, -30.84366694, -7.88825492
5406, -30.05813329, -7.65086230
5407, -30.58658457, -7.24046414
5408, -30.05730056, -7.21144479
5409, -30.32235893, -7.44566322
5410, -30.61453648, -6.82430786
5411, -31.08957749, -7.28694583
5412, -30.85205698, -7.05562684
5413, -31.56848345, -7.70852026
5414, -31.32903047, -7.49773305
5415, -32.66643119, -0.90949216
5416, -32.23559246, -0.81955341
5417, -32.39229431, -1.07725041
5418, -32.34461759, -0.41246719
5419, -32.08633366, -0.57466646
5420, -32.76381668, -0.47549568
5421, -32.84759074, -0.06339815
5422, -32.59610416, -0.23793267
5423, -33.20544415, -0.54555329
5424, -32.93593767, -0.72752273
5425, -44.67708493, 0.56750220
5426, -45.16437865, 0.06019034
5427, -45.15664855, 0.56085935
5428, -44.71651231, -0.43018080
5429, -45.18254145, -0.42777916
5430, -44.22157071, 0.02274883
5431, -43.80028512, -0.48845648
5432, -44.25839871, -0.45931864
5433, -43.64560075, 0.54287210
5434, -44.16134284, 0.55518715
5435, -35.96378390, 10.27034331
5436, -36.21667446, 10.05532691
5437, -36.49381421, 10.38629148
5438, -36.24092364, 10.60130787
5439, -36.22879905, 10.32831739
5440, -36.77134506, 10.71475207
5441, -36.74278333, 10.16225243
5442, -36.75706419, 10.43850225
5443, -36.47105820, 9.84162874
5444, -36.73177436, 9.88917763
5445, -35.95008535, 9.73681150
5446, -36.21057177, 9.78922012
5447, -32.36231565, -3.60416403
5448, -32.48762256, -3.16976707
5449, -32.20303674, -3.34191991
5450, -32.93445041, -3.26089362
5451, -32.77437658, -2.99832950
5452, -32.80606156, -3.69135261
5453, -33.09365038, -3.52119857
5454, -32.52108470, -3.86306756
5455, -43.31543178, 9.58246783
5456, -43.67167474, 9.25116526
5457, -43.65763978, 9.59924901
5458, -43.30098008, 8.86402620
5459, -43.66963143, 8.86987458
5460, -42.97847044, 9.24748752
5461, -42.95538906, 8.88513527
5462, -42.98387374, 9.59024955
5463, -36.42163031, -9.82134416
5464, -36.70906724, -10.14703546
5465, -36.68961784, -9.86592027
5466, -36.46512762, -10.37941050
5467, -36.75303372, -10.70786493
5468, -36.73105048, -10.42745020
5469, -36.22418267, -10.60633327
5470, -36.17636376, -10.05876802
5471, -35.93541881, -10.28569079
5472, -36.20027322, -10.33255064
5473, -35.88415078, -9.74108237
5474, -36.15289055, -9.78121326
5475, -44.79716227, 3.53192784
5476, -44.38275040, 4.03286051
5477, -44.35762357, 3.56819228
5478, -44.83276019, 4.46694288
5479, -44.39661710, 4.49254625
5480, -45.26347955, 3.97596851
5481, -45.27480448, 4.44358637
5482, -45.24585262, 3.50258304
5483, -46.57535338, 9.10810269
5484, -46.09577838, 9.54901429
5485, -46.12305045, 9.07836040
5486, -46.54897877, 10.07916969
5487, -46.04279457, 10.05876006
5488, -47.02852989, 9.60145357
5489, -47.02448939, 10.08766177
5490, -47.03767669, 9.12135904
5491, -32.50298974, -7.32344547
5492, -32.93178157, -7.30541805
5493, -32.70852455, -7.13322489
5494, -32.98130288, -7.70619989
5495, -33.50285849, -7.64145362
5496, -33.21732003, -7.47343583
5497, -32.98428370, -8.10272393
5498, -32.50640992, -7.70764802
5499, -32.50939074, -8.10417206
5500, -32.74534681, -7.90518598
5501, -32.04077561, -7.71263400
5502, -32.27188267, -7.51803973
5503, -36.56646037, -11.49393840
5504, -36.27708524, -11.15603255
5505, -36.03840607, -11.37756267
5506, -36.30243322, -11.43575054
5507, -35.98712813, -10.82674802
5508, -36.51413979, -10.93561780
5509, -36.25063396, -10.88118291
5510, -36.80502137, -11.26888189
5511, -37.04391530, -11.04112903
5512, -36.77902754, -10.98837341
5513, -37.09598144, -11.60718967
5514, -36.83122091, -11.55056404
5515, -37.62715024, -11.71806478
5516, -37.33607200, -11.37623061
5517, -37.36156584, -11.66262723
5518, -37.57829609, -11.14137537
5519, -37.31110569, -11.09125220
5520, -37.86950340, -11.47687954
5521, -37.84590961, -11.18782360
5522, -37.89310117, -11.77134052
5523, -37.87738801, 11.48188715
5524, -37.59014756, 11.14970914
5525, -37.85760802, 11.19590340
5526, -37.34411426, 11.38076837
5527, -37.05675039, 11.04833677
5528, -37.32344898, 11.09902295
5529, -37.10006482, 11.60918303
5530, -37.63110912, 11.72060918
5531, -37.36558697, 11.66489610
5532, -37.89704347, 11.77384432
5533, -36.81298220, 11.27093472
5534, -36.52757686, 10.93735002
5535, -36.79216363, 10.99284339
5536, -36.28309152, 11.15267917
5537, -35.99643830, 10.81663702
5538, -36.26200758, 10.87699352
5539, -36.04053490, 11.37414982
5540, -36.57033782, 11.49399788
5541, -36.30543636, 11.43407385
5542, -36.83520132, 11.55159045
5543, -33.46294405, 3.33944580
5544, -33.95580623, 3.54755506
5545, -33.60906521, 3.67760918
5546, -34.15146675, 3.03349506
5547, -34.34788982, 3.40148806
5548, -33.63511364, 2.85870274
5549, -33.97266763, 2.69878352
5550, -33.29557122, 3.00592530
5551, -38.24736122, -8.62461146
5552, -38.51734432, -8.33021852
5553, -38.22037721, -8.01708631
5554, -38.23386922, -8.32084889
5555, -38.49400896, -7.70214387
5556, -38.20044013, -7.70425823
5557, -38.80074457, -8.03440846
5558, -38.79416123, -7.71199935
5559, -38.81070567, -8.65917036
5560, -38.80572512, -8.34678941
5561, -29.07337239, -0.79938013
5562, -29.54497513, -0.72683220
5563, -29.27587580, -0.53633639
5564, -29.57449958, -1.22227797
5565, -29.83602480, -0.94876247
5566, -29.11410702, -1.23107795
5567, -29.10885609, -1.68323834
5568, -29.34167783, -1.45275815
5569, -28.66653811, -1.27692275
5570, -28.86995525, -1.03815144
5571, -18.32696541, -1.40941649
5572, -18.68645741, -1.07622298
5573, -18.37015238, -0.62139872
5574, -18.34855890, -1.01540761
5575, -18.74878199, -0.33115572
5576, -18.46221180, 0.10939720
5577, -18.41618209, -0.25600076
5578, -19.10819653, -0.05350327
5579, -19.00477099, -0.74270385
5580, -19.05648376, -0.39810356
5581, -18.98295178, -1.46241639
5582, -18.99386139, -1.10256012
5583, -23.99341371, -3.43623685
5584, -24.13195817, -3.14485335
5585, -23.82586907, -3.02241989
5586, -23.90964139, -3.22932837
5587, -24.27399185, -2.81207547
5588, -24.47522559, -3.26486881
5589, -24.61725927, -2.93209093
5590, -24.37460872, -3.03847214
5591, -24.82554584, -3.40834885
5592, -24.30723275, -3.61018314
5593, -24.56638930, -3.50926599
5594, -24.04160920, -3.68841126
5595, -24.69069146, 4.56591578
5596, -24.87794278, 4.14477682
5597, -25.28474841, 4.30175587
5598, -24.98771994, 4.43383583
5599, -25.06074565, 3.73361129
5600, -24.48495057, 4.00185936
5601, -24.66775344, 3.59069384
5602, -24.77284811, 3.86773533
5603, -24.08828847, 3.83775753
5604, -24.30736918, 4.38982749
5605, -24.19782883, 4.11379251
5606, -24.36073715, 4.70662860
5607, -42.90567640, -7.85766142
5608, -43.18595961, -7.51707971
5609, -42.83129839, -7.20944184
5610, -42.86848739, -7.53355163
5611, -43.12595211, -6.77687512
5612, -42.72664739, -6.82250499
5613, -43.53311754, -7.19049523
5614, -43.91279536, -6.80625318
5615, -43.51937374, -6.79156415
5616, -43.88585690, -7.56593533
5617, -43.53869897, -7.89251981
5618, -43.53590826, -7.54150752
5619, -29.30561092, 4.88236126
5620, -29.01421219, 5.28015587
5621, -28.94727416, 4.94740833
5622, -29.46527252, 5.57374855
5623, -29.09213555, 6.02784540
5624, -29.05317387, 5.65400064
5625, -29.88082332, 5.81962421
5626, -29.72185257, 5.19035194
5627, -29.80133794, 5.50498807
5628, -29.70209214, 4.82302150
5629, -33.29368879, 6.41722137
5630, -33.55685035, 6.05718963
5631, -33.89062421, 6.29411028
5632, -33.59215650, 6.35566582
5633, -33.80756202, 5.69448463
5634, -33.21804085, 5.82900941
5635, -33.51280143, 5.76174702
5636, -32.99281340, 6.15593927
5637, -32.95309911, 5.88721131
5638, -32.98414505, 6.46264020
5639, -34.30680606, -4.91700969
5640, -34.74949336, -5.03589845
5641, -34.90015628, -4.61430800
5642, -34.45746899, -4.49541924
5643, -34.60348117, -4.76565884
5644, -35.05112525, -4.18041308
5645, -35.35551389, -4.73709225
5646, -35.50648286, -4.30319733
5647, -35.20331957, -4.45875267
5648, -35.81052497, -4.87797146
5649, -35.18626762, -5.17231905
5650, -35.64127870, -5.31319825
5651, -35.49839629, -5.02514525
5652, -35.01971855, -5.59099368
5653, -34.58294429, -5.45457308
5654, -34.88460595, -5.31344606
5655, -44.45517254, 7.65005192
5656, -44.86599455, 8.08848656
5657, -44.45403062, 8.07789949
5658, -45.30504303, 7.65960877
5659, -45.29343029, 8.10803161
5660, -44.87397405, 7.20413836
5661, -45.30598669, 7.20658242
5662, -44.44751004, 7.20833998
5663, -37.62376200, 4.34871165
5664, -37.20216280, 4.07959585
5665, -37.46836249, 3.66947576
5666, -37.54606224, 4.00909371
5667, -36.78838624, 3.79288800
5668, -36.91581088, 4.47716275
5669, -36.50203432, 4.19045489
5670, -36.85209856, 4.13502537
5671, -36.61084926, 4.97151756
5672, -37.39270565, 4.76356783
5673, -37.08774403, 5.25792264
5674, -37.00177746, 4.86754269
5675, -37.82606387, 5.00218458
5676, -37.72491293, 4.67544812
5677, -36.62752597, 3.16370768
5678, -37.03185488, 3.40293974
5679, -36.70795611, 3.47829784
5680, -37.29402200, 2.97820587
5681, -37.38119224, 3.32384081
5682, -36.80839444, 2.74772308
5683, -37.04780666, 2.23626863
5684, -37.17091433, 2.60723725
5685, -36.37104102, 2.56927974
5686, -36.49928350, 2.86649371
5687, -24.96434556, -0.43882143
5688, -25.41079044, -0.50227932
5689, -25.22611586, -0.24580971
5690, -25.24448033, -0.88242733
5691, -25.55099820, -0.77400062
5692, -24.87552188, -0.78290866
5693, -24.75548994, -1.12280766
5694, -24.99998513, -1.00261750
5695, -24.49149833, -0.71288934
5696, -24.72792194, -0.57585539
5697, -30.50453337, 1.91358756
5698, -30.61085394, 1.41843653
5699, -31.13547299, 1.52919999
5700, -30.82000318, 1.72139378
5701, -31.18222153, 1.01227975
5702, -31.45464556, 1.29868950
5703, -30.70604667, 0.95076857
5704, -30.96635279, 0.75403710
5705, -30.11827279, 1.31754045
5706, -30.41215973, 1.13415451
5707, -33.73080610, -5.21917878
5708, -34.16246225, -5.32754538
5709, -34.01880608, -5.06809423
5710, -34.00061998, -5.73114392
5711, -34.42110202, -5.85817163
5712, -34.29178213, -5.59285850
5713, -33.85688460, -6.10997959
5714, -33.60136392, -5.61641144
5715, -33.72912426, -5.86319552
5716, -33.45509231, -5.37035990
5717, -35.07130295, -9.41688731
5718, -35.28305449, -9.16126973
5719, -34.98136086, -8.92774494
5720, -35.02633190, -9.17231612
5721, -35.16045379, -8.61138113
5722, -34.80192652, -8.41709948
5723, -34.89164369, -8.67242221
5724, -35.44180726, -8.25204897
5725, -35.52645550, -8.89313249
5726, -35.48413138, -8.57259073
5727, -35.59203154, -9.44679546
5728, -35.55924352, -9.16996397
5729, -31.03479481, 7.34944027
5730, -30.56764214, 7.29941837
5731, -30.59779964, 6.90885645
5732, -30.81629723, 7.12914836
5733, -30.06247012, 7.26326794
5734, -30.56308457, 7.72070774
5735, -30.05791254, 7.68455731
5736, -30.31277734, 7.49198784
5737, -30.58582203, 8.11720018
5738, -31.03916658, 7.72571794
5739, -31.06190405, 8.12221039
5740, -30.81249431, 7.92145906
5741, -31.48553648, 7.74298836
5742, -31.26016565, 7.54621432
5743, -27.54557468, 2.53329723
5744, -27.37022775, 2.98431450
5745, -26.88794769, 2.82902028
5746, -27.21676119, 2.68115876
5747, -26.71992150, 3.27810267
5748, -26.25153480, 3.13290951
5749, -26.56974124, 2.98096490
5750, -26.53562660, 3.72663973
5751, -27.18630298, 3.43143537
5752, -26.86096479, 3.57903755
5753, -27.85003394, 3.14356422
5754, -27.51816846, 3.28749979
5755, -34.04438133, -6.62922773
5756, -34.23207596, -6.26564088
5757, -33.95063297, -6.36960366
5758, -34.64552325, -6.42045782
5759, -34.83454930, -6.01298856
5760, -34.53331263, -6.13931472
5761, -35.07276867, -6.59336924
5762, -34.44432605, -6.83734912
5763, -34.87157147, -7.01026055
5764, -34.75854736, -6.71535918
5765, -34.16567248, -7.25625122
5766, -34.10502691, -6.94273948
5767, -34.87350931, 10.03631303
5768, -35.12918504, 9.81242412
5769, -35.42865935, 10.14220653
5770, -35.17298361, 10.36609544
5771, -35.15108433, 10.08925978
5772, -35.70840272, 10.48018192
5773, -35.68404052, 9.93236792
5774, -35.69622162, 10.20627492
5775, -35.43280588, 9.60035215
5776, -35.69144561, 9.66858182
5777, -34.82952704, 9.40445523
5778, -35.13116646, 9.50240369
5779, -35.84971379, -1.51973887
5780, -35.93207288, -1.07413124
5781, -35.65733940, -1.26053033
5782, -36.41654584, -1.12429818
5783, -36.20275386, -0.84158711
5784, -36.33872145, -1.62137536
5785, -36.91848084, -1.68940910
5786, -36.66751334, -1.40685364
5787, -36.22002669, -2.09065018
5788, -36.03487024, -1.80519453
5789, -32.05182881, -8.83165266
5790, -32.04279629, -8.47137505
5791, -31.58853326, -8.46996140
5792, -31.59756579, -8.83023901
5793, -31.82018104, -8.65080703
5794, -31.11651684, -8.47645084
5795, -31.57193299, -8.09013875
5796, -31.34422492, -8.28329479
5797, -32.04422516, -8.09425248
5798, -31.80635430, -7.90138637
5799, -32.50796187, -8.48129463
5800, -32.27609351, -8.28777356
5801, -44.61349254, -7.72747725
5802, -44.29998949, -7.27934371
5803, -44.24967472, -7.64670629
5804, -44.73044168, -6.91569216
5805, -44.32161852, -6.86097267
5806, -45.13089600, -7.43727935
5807, -45.16862935, -6.98544527
5808, -45.03649119, -7.89704150
5809, -38.53719351, -8.94150660
5810, -38.82617996, -9.26839586
5811, -38.81844281, -8.96378311
5812, -38.55741760, -9.54247670
5813, -38.83457363, -9.56943589
5814, -38.27111827, -9.21993503
5815, -38.28214909, -9.51561041
5816, -38.25923974, -8.92227324
5817, -35.18415848, -10.41107481
5818, -35.41481673, -10.20140501
5819, -35.13005344, -9.91310105
5820, -34.89939519, -10.12277085
5821, -35.15710596, -10.16208793
5822, -34.84426403, -9.64380388
5823, -35.35709235, -9.68618448
5824, -35.10067819, -9.66499418
5825, -35.64921160, -9.98047139
5826, -35.62062157, -9.71363342
5827, -35.70102394, -10.50662441
5828, -35.67511777, -10.24354790
5829, -27.48622741, 5.97993508
5830, -26.89580212, 5.94905231
5831, -26.95886910, 5.44394850
5832, -27.22254825, 5.71194179
5833, -26.11242824, 5.95985168
5834, -26.79034285, 6.51919134
5835, -26.45138555, 6.23952151
5836, -27.53209533, 6.51371685
5837, -27.54103313, 7.05848459
5838, -27.16568799, 6.78883797
5839, -28.25842516, 6.46364677
5840, -27.87232628, 6.22179092
5841, -27.51803756, -7.05400962
5842, -27.47909205, -6.51010503
5843, -26.76033512, -6.52005450
5844, -27.13918634, -6.78703206
5845, -26.82671417, -5.96375757
5846, -26.07334802, -5.97369379
5847, -26.41684157, -6.24687414
5848, -26.84958358, -5.46760153
5849, -27.39873644, -5.97642476
5850, -27.12416001, -5.72201315
5851, -28.18544066, -6.44367214
5852, -27.79208855, -6.21004845
5853, -24.65771099, -1.45826336
5854, -24.57506844, -1.79684991
5855, -24.94406295, -1.86169597
5856, -24.80088697, -1.65997966
5857, -24.86110441, -2.22949486
5858, -25.29535031, -2.29946812
5859, -25.11970663, -2.08058205
5860, -24.75506726, -2.57688894
5861, -24.48481847, -2.13690331
5862, -24.37878132, -2.48429739
5863, -24.61994287, -2.35689613
5864, -24.10566405, -2.05999555
5865, -24.19591402, -1.71994215
5866, -24.34036625, -1.92842273
5867, -35.40922924, 4.52733016
5868, -35.78263373, 4.89715437
5869, -35.41856175, 5.23878628
5870, -35.41389550, 4.88305822
5871, -36.22335770, 5.33483549
5872, -36.17012529, 4.53383644
5873, -36.19674149, 4.93433596
5874, -35.79355358, 4.19186381
5875, -36.14779395, 4.19115935
5876, -35.39982879, 4.13577869
5877, -19.33134568, -1.85523380
5878, -19.69058479, -2.12964795
5879, -19.94576921, -1.66826690
5880, -19.63855745, -1.76175035
5881, -20.32402975, -1.89502401
5882, -20.27058162, -1.51866060
5883, -20.10251959, -2.34724603
5884, -20.39672591, -2.20961163
5885, -19.41702913, -2.78120140
5886, -19.75977436, -2.56422371
5887, -21.46152087, 0.87626047
5888, -21.33922469, 1.38391772
5889, -20.84705839, 1.26860802
5890, -20.96935456, 0.76095076
5891, -21.15428963, 1.07243424
5892, -20.26534919, 1.25156959
5893, -20.81205848, 1.81749265
5894, -20.23034929, 1.80045422
5895, -20.53870384, 1.53453112
5896, -20.76515067, 2.19362141
5897, -21.20271019, 1.84279006
5898, -21.15580237, 2.21891882
5899, -20.98393043, 2.01820574
5900, -21.69391580, 1.97163615
5901, -21.83043030, 1.51276381
5902, -21.51657024, 1.67777694
5903, -33.81199211, 10.03951736
5904, -33.99919602, 9.78433472
5905, -34.32320633, 10.00301290
5906, -34.13600241, 10.25819554
5907, -34.06759922, 10.02126513
5908, -34.64181436, 10.28604834
5909, -34.55490128, 9.75327759
5910, -34.59835782, 10.01966297
5911, -34.17798648, 9.46428719
5912, -34.45261225, 9.11546482
5913, -34.50375676, 9.43437121
5914, -33.79943442, 9.25641182
5915, -33.62064396, 9.57645935
5916, -33.89931522, 9.52037327
5917, -29.77333998, -5.70373893
5918, -29.64315748, -6.14382517
5919, -30.16039868, -6.28918482
5920, -29.96686933, -5.99646188
5921, -30.09186806, -6.72999871
5922, -30.38746758, -6.55674634
5923, -29.51886689, -6.65380669
5924, -29.48429939, -7.13525277
5925, -29.78808372, -6.93262574
5926, -28.86029067, -6.48195622
5927, -28.98458126, -5.97197469
5928, -29.25172407, -6.31289069
5929, -29.51429302, 7.17204463
5930, -29.56601219, 6.71123798
5931, -30.11418929, 6.80246129
5932, -29.81424115, 6.98725296
5933, -30.19307083, 6.39191519
5934, -30.39543523, 6.65038582
5935, -29.72385174, 6.22309100
5936, -30.03694707, 6.10576970
5937, -28.93429600, 6.51599238
5938, -29.32907387, 6.36954169
5939, -28.27595745, -2.08763715
5940, -28.27768536, -1.71155828
5941, -27.90479901, -1.71882833
5942, -28.09037823, -1.90323274
5943, -28.25613785, -1.30664908
5944, -28.68808563, -1.68183194
5945, -28.47211174, -1.49424051
5946, -28.67236579, -2.10228707
5947, -29.09313625, -2.10369346
5948, -28.89061094, -1.89276270
5949, -28.64541107, -2.50240037
5950, -28.46068426, -2.29501876
5951, -41.67492180, 6.72436995
5952, -41.31383126, 6.15410142
5953, -41.80781240, 5.82339899
5954, -41.74136710, 6.27388447
5955, -41.42407801, 5.36387746
5956, -41.83571833, 5.40201695
5957, -41.00424954, 5.70372827
5958, -41.03975394, 5.31615639
5959, -40.87256959, 6.44746739
5960, -40.93840957, 6.07559783
5961, -34.17812431, -10.28289638
5962, -34.38643392, -10.06357187
5963, -34.08654583, -9.82864220
5964, -33.87823622, -10.04796671
5965, -34.13233507, -10.05576929
5966, -33.75406575, -9.52793303
5967, -34.33811117, -9.59721312
5968, -34.04608846, -9.56257307
5969, -34.61230062, -9.85598368
5970, -34.59118760, -9.62050850
5971, -34.67352850, -10.33035904
5972, -34.64291456, -10.09317136
5973, -24.12005945, -0.63106545
5974, -24.01577272, -0.96383270
5975, -24.38721159, -1.04565659
5976, -24.25363552, -0.83836102
5977, -24.28943265, -1.38111229
5978, -24.52246129, -1.25195997
5979, -23.90845178, -1.30567710
5980, -23.81493315, -1.64450696
5981, -24.05218290, -1.51280963
5982, -23.52906239, -1.22434060
5983, -23.63638333, -0.88249620
5984, -23.77241755, -1.09408665
5985, -40.39145079, -7.16756089
5986, -40.09864914, -6.78952378
5987, -39.74254996, -7.09477472
5988, -40.06700038, -7.13116781
5989, -39.42987521, -6.73474459
5990, -39.41925592, -7.07562455
5991, -39.78086082, -6.39227051
5992, -39.43790050, -6.37661792
5993, -40.47724685, -6.46252544
5994, -40.12905384, -6.42739798
5995, -33.74683167, -0.13703408
5996, -33.27768056, -0.08875449
5997, -33.47613791, -0.34129368
5998, -33.31316211, 0.32729518
5999, -33.08037642, 0.13194852
6000, -33.76775937, 0.37107948
6001, -33.51976747, 0.56943622
6002, -34.04488140, 0.11223389
6003, -31.58097644, 8.84192449
6004, -31.55833852, 8.47414785
6005, -32.01680089, 8.46515423
6006, -32.03943881, 8.83293088
6007, -31.79888867, 8.65353936
6008, -32.53565499, 8.40930593
6009, -31.96021955, 8.07464742
6010, -32.24793727, 8.24197667
6011, -31.52455080, 8.10201947
6012, -31.72287802, 7.90881789
6013, -31.09569177, 8.49433876
6014, -31.31012129, 8.29817912
6015, -35.75526856, 11.02539432
6016, -35.46723298, 10.68893921
6017, -35.73183564, 10.75278812
6018, -35.23070184, 10.89578868
6019, -34.93645248, 10.57294491
6020, -35.20184273, 10.63094206
6021, -34.99844824, 11.08228937
6022, -35.51893526, 11.22719679
6023, -35.25869175, 11.15474308
6024, -35.77973508, 11.30067330
6025, -35.51995558, -11.23508513
6026, -35.23715037, -10.91331132
6027, -35.00387644, -11.09192367
6028, -35.26191601, -11.16350440
6029, -34.95325299, -10.60781423
6030, -35.46805586, -10.71657191
6031, -35.21065443, -10.66219307
6032, -35.75416005, -11.03669551
6033, -35.72759199, -10.77165996
6034, -35.77918083, -11.30632390
6035, -32.83423916, -9.58636780
6036, -32.88173742, -9.26595384
6037, -32.47780337, -9.19911681
6038, -32.43030512, -9.51953077
6039, -32.65602127, -9.39274231
6040, -32.04164525, -9.17398869
6041, -32.48798693, -8.85678078
6042, -32.26481609, -9.01538474
6043, -32.94627005, -8.88826084
6044, -32.96624498, -8.51277469
6045, -32.72711596, -8.68477774
6046, -33.43874643, -8.97641339
6047, -33.37421380, -9.35410639
6048, -33.16024192, -9.12118361
6049, -32.40667596, 9.53838866
6050, -32.45681412, 9.21842070
6051, -32.84304002, 9.29622849
6052, -32.79290185, 9.61619645
6053, -32.62485799, 9.41730857
6054, -33.25769947, 9.42472895
6055, -32.94839908, 8.93961706
6056, -33.36305854, 9.06811751
6057, -33.10304928, 9.18217300
6058, -33.01277119, 8.48537747
6059, -32.47128287, 8.86354552
6060, -32.74202703, 8.67446149
6061, -32.02497005, 9.18780606
6062, -32.24812646, 9.02567579
6063, -34.71335992, 10.77870399
6064, -34.41872180, 10.49180743
6065, -34.67758714, 10.53237617
6066, -34.21966772, 10.68441836
6067, -34.17783507, 10.47130695
6068, -34.48407338, 10.94785729
6069, -34.23565474, 10.88680311
6070, -34.74126081, 11.01507333
6071, -34.49289256, -10.95575307
6072, -34.23845915, -10.69640216
6073, -34.24505045, -10.89279501
6074, -34.44788281, -10.51877889
6075, -34.20829173, -10.48964927
6076, -34.72760730, -10.79623408
6077, -34.70056790, -10.56329656
6078, -34.74838450, -11.02383837
6079, -30.64875722, -8.50143625
6080, -30.68523635, -8.87304910
6081, -31.15299597, -8.84806369
6082, -30.90087659, -8.67474997
6083, -31.17858667, -9.18989216
6084, -31.62315649, -9.17206747
6085, -31.38807623, -9.01006558
6086, -31.21974320, -9.51246648
6087, -30.74141573, -9.23641461
6088, -30.98057947, -9.37444054
6089, -30.24467769, -8.94641092
6090, -30.49304671, -9.09141276
6091, -30.73711556, 9.24089512
6092, -31.17013738, 9.19849540
6093, -31.21559409, 9.51658921
6094, -30.97635483, 9.37874217
6095, -31.61218061, 9.18170629
6096, -31.13893322, 8.85871361
6097, -31.37555691, 9.02020995
6098, -30.67702107, 8.88372286
6099, -30.63377962, 8.51934801
6100, -30.88635642, 8.68903081
6101, -30.24076258, 8.95260416
6102, -30.48893907, 9.09674964
6103, -28.91671113, 7.12006082
6104, -28.24084029, 7.06771520
6105, -28.58756814, 6.79185379
6106, -28.29139947, 7.60715806
6107, -27.91621630, 7.33282133
6108, -28.92458426, 7.61604881
6109, -29.01708877, 8.14078656
6110, -28.65424412, 7.87397231
6111, -29.52216615, 7.66803262
6112, -29.21943864, 7.39404672
6113, -29.01230306, -8.13274310
6114, -28.90625452, -7.60039497
6115, -28.27785544, -7.59954769
6116, -28.64507925, -7.86614540
6117, -28.20430069, -7.05562986
6118, -27.89794650, -7.32677865
6119, -28.87915070, -7.09391393
6120, -28.53229568, -6.76879304
6121, -29.51140321, -7.64173381
6122, -29.19527696, -7.36782387
6123, -32.05998920, -9.77677330
6124, -31.68285260, -9.78430136
6125, -31.90299594, -9.91709362
6126, -31.63830833, -9.48856641
6127, -31.45129790, -9.64838392
6128, -32.05679709, -9.49048763
6129, -31.83997679, -9.33127755
6130, -32.24514716, -9.64815203
6131, -31.67757150, 9.78875857
6132, -32.04780436, 9.78617225
6133, -31.89690352, 9.92179309
6134, -32.04166757, 9.50324613
6135, -32.22724016, 9.66228045
6136, -31.62887812, 9.49714635
6137, -31.82692409, 9.34247621
6138, -31.44658280, 9.65267389
6139, -43.54321110, -9.14978284
6140, -43.20177817, -9.46028295
6141, -43.53615025, -9.82609858
6142, -43.87758318, -9.51559847
6143, -43.53968067, -9.48794071
6144, -43.83390657, -10.31627399
6145, -43.12644931, -10.08500755
6146, -43.48017794, -10.20064077
6147, -42.87173442, -9.72922043
6148, -42.82997427, -10.02148152
6149, -42.90597456, -9.10468519
6150, -42.88885449, -9.41695281
6151, -21.92145024, 1.03121417
6152, -22.36132711, 1.10885554
6153, -22.27030718, 1.59040518
6154, -22.09587871, 1.31080968
6155, -22.66567658, 1.22469472
6156, -22.48915613, 0.78610291
6157, -22.79350560, 0.90194208
6158, -22.57741635, 1.00539881
6159, -22.73724351, 0.33970541
6160, -22.07882754, 0.55436544
6161, -22.32691491, 0.10796794
6162, -22.40803552, 0.44703542
6163, -21.61889817, 0.39941173
6164, -21.77017420, 0.71531295
6165, -25.84360701, -5.18103195
6166, -26.03617960, -4.76188895
6167, -25.73120038, -4.88299101
6168, -26.47514087, -4.88523514
6169, -26.32946452, -4.59949114
6170, -26.35213646, -5.37241117
6171, -26.66236223, -5.17641834
6172, -25.95847751, -5.57736287
6173, -23.23226365, -4.28009162
6174, -22.89587639, -4.32030735
6175, -23.11209421, -4.44212585
6176, -22.80245774, -4.02503727
6177, -22.43883604, -4.07880986
6178, -22.66735622, -4.19955861
6179, -22.74128386, -3.74058187
6180, -23.15687017, -3.98416972
6181, -22.94907701, -3.86237579
6182, -23.38464911, -4.10101933
6183, -23.15148191, 3.94314478
6184, -22.79948476, 4.00135810
6185, -22.73482665, 3.70989151
6186, -22.94315428, 3.82651814
6187, -22.43722406, 4.06885761
6188, -22.89451539, 4.30658044
6189, -22.66586973, 4.18771902
6190, -23.23086942, 4.25058544
6191, -23.11139709, 4.42737275
6192, -23.38094997, 4.05381446
6193, -33.07631608, -10.00124010
6194, -33.18298753, -9.70619915
6195, -32.95527762, -9.79380395
6196, -33.56283948, -9.88002579
6197, -33.46852664, -9.61706609
6198, -33.39883655, -10.13833629
6199, -33.63853638, -10.09315150
6200, -33.15877584, -10.23516227
6201, -23.11735016, 2.80692208
6202, -22.78799549, 2.78909937
6203, -22.96871256, 2.64467380
6204, -22.73536614, 3.09763228
6205, -22.39261240, 3.06930853
6206, -22.59030395, 2.92920395
6207, -22.71958857, 3.39364433
6208, -23.07190727, 3.10318694
6209, -22.89574792, 3.24841564
6210, -23.25565882, 2.97247791
6211, -23.10048871, -3.16166543
6212, -22.75866808, -3.13510689
6213, -22.73097968, -3.42725482
6214, -22.91573419, -3.29446013
6215, -22.40572828, -3.08203396
6216, -22.82346019, -2.82002297
6217, -22.61459424, -2.95102846
6218, -23.16477081, -2.87631564
6219, -23.21905578, -2.57070556
6220, -23.02125799, -2.69536427
6221, -23.48975966, -2.93786031
6222, -23.29512418, -3.04976287
6223, -21.12430806, 0.21000908
6224, -21.30104616, -0.30665830
6225, -21.79563627, -0.11725564
6226, -21.45997217, 0.04637672
6227, -21.97495233, -0.60279149
6228, -22.15093362, -0.24741178
6229, -21.49085187, -0.82840248
6230, -21.84598753, -1.00163412
6231, -20.75771962, -0.55137018
6232, -21.12428575, -0.68988633
6233, -23.01509051, -1.49071525
6234, -23.41200596, -1.57538154
6235, -23.27207645, -1.35752793
6236, -23.32583944, -1.91606528
6237, -23.72876664, -1.98519071
6238, -23.57038630, -1.78028612
6239, -23.28305725, -2.25268223
6240, -22.89978331, -1.86822192
6241, -23.09142028, -2.06045207
6242, -22.69261884, -1.65552472
6243, -21.18624028, -2.79278612
6244, -21.40978047, -2.36508134
6245, -21.11061989, -2.50776486
6246, -21.79174134, -2.53301122
6247, -21.75035001, -2.19009713
6248, -21.60821365, -2.92611783
6249, -21.98702104, -3.04526135
6250, -21.88938119, -2.78913629
6251, -21.31397520, -3.45566526
6252, -21.25010774, -3.12422569
6253, -21.98296793, 3.04171186
6254, -21.62324607, 2.92654058
6255, -21.79520486, 2.56165539
6256, -21.88908639, 2.80168363
6257, -21.44125264, 2.38646719
6258, -21.74456033, 2.26664577
6259, -21.22975440, 2.73954069
6260, -20.94430413, 2.57199232
6261, -21.19277839, 2.47922976
6262, -20.92300042, 3.26496892
6263, -21.31649209, 3.45196881
6264, -21.27312325, 3.09575475
6265, -33.45253519, -8.12776275
6266, -33.94545599, -8.17877169
6267, -33.99577929, -7.69246256
6268, -33.72415724, -7.91011265
6269, -34.36737373, -8.25600170
6270, -33.87846813, -8.56268658
6271, -34.12292093, -8.40934414
6272, -33.43449647, -8.53781351
6273, -33.65860728, -8.76954998
6274, -33.20939009, -8.32026872
6275, -30.09319882, 8.12483602
6276, -29.55745243, 8.10831133
6277, -29.80768249, 7.89643432
6278, -29.64040839, 8.56297732
6279, -29.32874858, 8.35188194
6280, -30.14115641, 8.52698385
6281, -29.94058548, 8.75779074
6282, -30.36348922, 8.32209202
6283, -30.14632924, -8.51328991
6284, -29.64166611, -8.55547662
6285, -29.94317190, -8.75094377
6286, -29.55392444, -8.09276718
6287, -29.32698458, -8.34410986
6288, -30.10065452, -8.10189567
6289, -29.80602887, -7.87181474
6290, -30.37470587, -8.30166596
6291, -35.32271212, -7.18995992
6292, -35.74893223, -7.36312685
6293, -35.92578924, -6.93767840
6294, -35.49956913, -6.76451147
6295, -35.62425068, -7.06381916
6296, -36.11531822, -6.52457681
6297, -36.32771417, -7.12186003
6298, -36.22151619, -6.82321842
6299, -36.17171199, -7.49435844
6300, -36.43245796, -7.38831396
6301, -35.62828831, -7.83443922
6302, -35.90000015, -7.66439883
6303, -22.76529691, 1.87420131
6304, -23.13668748, 1.83404253
6305, -22.96941792, 2.01862124
6306, -23.06009514, 1.46672985
6307, -23.51858088, 1.39785065
6308, -23.32763418, 1.61594659
6309, -23.01042409, 1.17836579
6310, -22.71534762, 1.51305877
6311, -22.86288586, 1.34571228
6312, -22.51780204, 1.73230325
6313, -33.35812807, 10.14958378
6314, -33.49197730, 9.88671578
6315, -33.58506009, 10.09455057
6316, -33.12903281, 9.73498538
6317, -33.37483839, 9.65572237
6318, -33.03861217, 10.01782203
6319, -32.91575701, 9.81700924
6320, -33.13276872, 10.24431989
6321, -28.86502323, 1.96348933
6322, -28.69712810, 2.40969692
6323, -28.20964635, 2.25188368
6324, -28.53733479, 2.10768651
6325, -28.03268507, 2.69718133
6326, -27.87761052, 2.39259046
6327, -28.52459886, 2.86762834
6328, -28.18731640, 3.00559628
6329, -29.19881757, 2.57683596
6330, -28.86170821, 2.72223215
6331, -41.87352766, 8.33823045
6332, -42.12309400, 7.91784354
6333, -42.19165925, 8.26056047
6334, -41.65961032, 7.76269183
6335, -41.81300560, 7.20532864
6336, -41.96804980, 7.56158609
6337, -41.36594302, 7.64990115
6338, -41.54823913, 8.10399573
6339, -41.45709108, 7.87694844
6340, -41.60022354, 8.40067116
6341, -27.39923314, -1.12430010
6342, -27.78278984, -0.98783521
6343, -27.50712122, -0.85359510
6344, -27.85475639, -1.37656453
6345, -28.01946384, -1.14724215
6346, -27.50969533, -1.42937213
6347, -27.70724717, -1.57410023
6348, -27.29588143, -1.33218899
6349, -18.84503201, 0.40114209
6350, -18.55082143, 0.81479995
6351, -18.50651662, 0.46209858
6352, -18.91870197, 1.16876129
6353, -18.55691283, 1.18558428
6354, -19.25650480, 0.67866819
6355, -19.74993560, 1.06373063
6356, -19.33431879, 1.11624596
6357, -19.51966932, 0.22402283
6358, -19.18235067, 0.31258246
6359, -45.13162762, -9.76242303
6360, -44.73251532, -10.26787861
6361, -45.18032592, -10.22289622
6362, -44.28722205, -9.84512547
6363, -44.28321095, -10.29207630
6364, -44.60872493, -9.43412914
6365, -44.24315405, -9.47486380
6366, -45.03641609, -9.29471531
6367, -29.99200560, 1.77939014
6368, -29.50119748, 1.65409720
6369, -29.80973514, 1.48581883
6370, -29.35240588, 2.10685364
6371, -29.18311036, 1.80879326
6372, -29.85963427, 2.26060394
6373, -29.52922592, 2.41871995
6374, -30.18208382, 2.08709575
6375, -23.91491309, -2.71936432
6376, -23.57880368, -2.63480475
6377, -23.70233638, -2.82861232
6378, -23.64280515, -2.31678141
6379, -23.43093047, -2.44374349
6380, -24.01970257, -2.39158625
6381, -23.87423460, -2.18838848
6382, -24.14684721, -2.60183086
6383, -36.69108672, 0.40024421
6384, -37.04223293, 0.61841705
6385, -36.76107434, 0.67645167
6386, -37.26867797, 0.34045069
6387, -37.30589848, 0.59053379
6388, -36.98857475, 0.08232792
6389, -37.26398091, 0.08263150
6390, -36.65489341, 0.07763600
6391, -26.34844637, 4.17816374
6392, -25.90112091, 4.02845016
6393, -26.08830114, 3.57692615
6394, -26.21837376, 3.87754495
6395, -25.64356651, 3.44422531
6396, -25.80680017, 3.00020867
6397, -25.94755066, 3.28856741
6398, -25.22714847, 3.30917270
6399, -25.47716370, 3.86866390
6400, -25.35215608, 3.58891830
6401, -25.70870563, 4.46154213
6402, -25.59293466, 4.16510302
6403, -42.48822918, -0.24797260
6404, -42.79564516, 0.21944412
6405, -42.42260166, 0.13667026
6406, -43.31986590, -0.09384248
6407, -43.22062296, 0.38115811
6408, -42.93640018, -0.61128053
6409, -43.36834265, -0.54986851
6410, -42.53092547, -0.67061808
6411, -41.41164201, -7.06156573
6412, -41.03775468, -7.28415541
6413, -41.33109475, -7.36755379
6414, -40.77222233, -6.89141198
6415, -40.71460273, -7.22585815
6416, -41.19014630, -6.58949645
6417, -40.83369658, -6.52601095
6418, -41.56173787, -6.70861195
6419, -24.29343466, 3.47290008
6420, -24.44340356, 3.08944103
6421, -24.81772233, 3.20723478
6422, -24.55557850, 3.34006743
6423, -24.55510201, 2.73307157
6424, -24.08803943, 2.99983656
6425, -24.32157072, 2.86645406
6426, -23.96872859, 3.31465203
6427, -23.87262643, 3.10640774
6428, -24.02850853, 3.57620478
6429, -26.46729924, -1.50809430
6430, -26.60960745, -1.80801167
6431, -26.69726235, -1.58354213
6432, -26.28614927, -1.99559652
6433, -26.55495657, -2.07560791
6434, -26.10710202, -1.66400977
6435, -26.00290733, -1.93001601
6436, -26.20105943, -1.39368279
6437, -29.46489982, -2.56364614
6438, -29.39312501, -2.98599847
6439, -29.63361232, -2.80404974
6440, -29.00376658, -2.94306275
6441, -29.17063948, -3.16411829
6442, -29.04587213, -2.53206426
6443, -28.82458883, -2.72273156
6444, -29.27901803, -2.33366980
6445, -23.37495606, -0.44163707
6446, -23.53781418, -0.04994542
6447, -23.07455050, 0.09063005
6448, -23.22475328, -0.17550351
6449, -23.73065410, 0.27575340
6450, -23.88939982, -0.20532578
6451, -23.81002696, 0.03521381
6452, -23.75806221, -0.52892703
6453, -24.00472964, -0.41819562
6454, -23.50566969, -0.66206663
6455, -36.45067323, -4.56924454
6456, -35.97280222, -4.42441637
6457, -36.13059910, -4.72360800
6458, -36.11243178, -3.98339142
6459, -35.64611242, -3.86217237
6460, -35.80945732, -4.14329437
6461, -36.22621048, -3.54767615
6462, -36.56369985, -4.08348049
6463, -36.39495516, -3.81557832
6464, -36.78902994, -4.37706151
6465, -36.60068706, 1.67942555
6466, -36.16995365, 1.54405000
6467, -36.44492143, 1.40938486
6468, -36.03516561, 1.99060481
6469, -35.86606655, 1.69354599
6470, -36.50550099, 2.13087153
6471, -36.20310331, 2.27994228
6472, -36.82424686, 1.95784709
6473, -38.13246953, 5.59692262
6474, -37.67247271, 5.42251397
6475, -37.97926670, 5.29955360
6476, -37.54375431, 5.90616160
6477, -37.31574917, 5.58204212
6478, -38.01055642, 6.04045825
6479, -37.72281359, 6.18478801
6480, -38.34401581, 5.89886384
6481, -26.44310610, 5.32262835
6482, -26.61614582, 4.81786258
6483, -26.78750746, 5.13090554
6484, -26.14830318, 4.65882204
6485, -26.48229610, 4.49801316
6486, -25.91877349, 5.11494970
6487, -25.81373956, 4.78824592
6488, -26.01560086, 5.53740069
6489, -34.67958950, 7.27991535
6490, -34.83780345, 6.93798543
6491, -34.92050791, 7.18104270
6492, -34.54897686, 6.74080327
6493, -34.76772914, 6.42812080
6494, -34.80276629, 6.68305311
6495, -34.21558910, 6.52958070
6496, -34.31647534, 7.09684063
6497, -34.26603222, 6.81321066
6498, -34.39993804, 7.37742952
6499, -22.32204206, 3.41624862
6500, -21.91239758, 3.38865195
6501, -22.15250499, 3.22898024
6502, -21.85455102, 3.78615560
6503, -21.58552156, 3.61906221
6504, -22.33728013, 3.73249580
6505, -22.14588754, 3.92750660
6506, -22.52843435, 3.56307006
6507, -22.34051379, -3.74846947
6508, -21.85617270, -3.79217702
6509, -22.14750437, -3.93549344
6510, -21.91150237, -3.39836982
6511, -21.58507395, -3.62392114
6512, -22.33020961, -3.43514242
6513, -22.15861532, -3.24020189
6514, -22.53574673, -3.58786215
6515, -42.01389575, -8.69926771
6516, -41.74447041, -8.36296526
6517, -41.72384808, -8.66211982
6518, -42.04698558, -8.11432957
6519, -41.77175142, -8.07219871
6520, -42.32207412, -8.42980849
6521, -42.60668808, -8.15557505
6522, -42.32683683, -8.13495231
6523, -42.60308205, -8.76566511
6524, -42.30848890, -8.73246641
6525, -43.21733595, -8.18254720
6526, -43.53164450, -8.52179618
6527, -43.53517174, -8.20715799
6528, -43.22124014, -8.81948090
6529, -43.53742780, -8.83578951
6530, -42.91834764, -8.48046082
6531, -42.91216110, -8.79257301
6532, -42.91201202, -8.16906112
6533, -35.71874569, 5.58418191
6534, -35.35671360, 5.87832898
6535, -35.05652966, 5.53293335
6536, -35.38763767, 5.55855763
6537, -35.04259292, 6.11771336
6538, -35.58837812, 6.16735111
6539, -35.31548552, 6.14253224
6540, -35.96013700, 6.01840173
6541, -35.84729734, 6.27156391
6542, -36.09174735, 5.67661861
6543, -24.97805406, -3.04962631
6544, -25.11586204, -2.69442432
6545, -24.86656066, -2.81325763
6546, -25.47973878, -2.83315677
6547, -25.38754454, -2.56631244
6548, -25.33592888, -3.18128921
6549, -25.58226778, -3.06933250
6550, -25.08073736, -3.29481903
6551, -35.26397643, -6.17202995
6552, -35.44914567, -5.75003506
6553, -35.14184749, -5.88151181
6554, -35.89145096, -5.91681636
6555, -35.76636483, -5.61500730
6556, -35.69077689, -6.34317218
6557, -36.00338459, -6.22069659
6558, -35.38177278, -6.46827071
6559, -38.18304436, 0.98010093
6560, -37.92099704, 1.31195777
6561, -37.89173876, 1.02305767
6562, -38.26824815, 1.65791742
6563, -37.88986390, 1.67303850
6564, -38.60279888, 1.24095227
6565, -38.64091144, 1.61620327
6566, -38.52732492, 0.86292657
6567, -18.67690196, -1.87471902
6568, -19.02529586, -2.26753643
6569, -19.00412382, -1.86497641
6570, -18.70802392, -2.74507509
6571, -19.06252653, -2.76313825
6572, -18.33088786, -2.25462660
6573, -18.34636024, -2.69704329
6574, -18.32892663, -1.83202155
6575, -29.12800081, -4.87167698
6576, -29.50640518, -5.08098631
6577, -29.42148279, -4.79567902
6578, -29.31322708, -5.50246447
6579, -29.63987258, -5.39236262
6580, -28.84325339, -5.22348151
6581, -28.91391733, -5.59772810
6582, -28.78281220, -4.88521419
6583, -37.18349643, -2.43752362
6584, -36.94771421, -2.85105550
6585, -37.26957129, -2.76287915
6586, -36.52799041, -2.69398208
6587, -36.36364182, -3.11569532
6588, -36.65567802, -2.98337541
6589, -36.06079974, -2.55266048
6590, -36.68721736, -2.23197178
6591, -36.37400855, -2.39231613
6592, -37.05098864, -2.06346636
6593, -19.97478131, 2.62411263
6594, -20.25579519, 3.12128140
6595, -19.90200056, 3.02056761
6596, -20.62857513, 2.77194280
6597, -20.58939781, 3.19312516
6598, -20.44942166, 2.39357189
6599, -20.69686290, 2.48278210
6600, -20.10256530, 2.21228342
6601, -25.35467265, 2.89712701
6602, -25.48237926, 2.45363265
6603, -25.64458972, 2.72692066
6604, -25.02061674, 2.41053386
6605, -25.27751195, 2.18809536
6606, -24.94524651, 2.79518910
6607, -24.78785938, 2.57180272
6608, -25.08619749, 3.05218090
6609, -34.59677611, -4.07229545
6610, -34.14903952, -3.96849136
6611, -34.30325425, -4.23195530
6612, -34.28272851, -3.54030549
6613, -33.99073594, -3.70613301
6614, -34.73630784, -3.64195014
6615, -34.87125006, -3.20917279
6616, -34.57698929, -3.37473914
6617, -35.19065698, -3.75006777
6618, -34.89371655, -3.91118161
6619, -41.12397802, 6.86236219
6620, -40.69864186, 7.10046887
6621, -40.78560573, 6.77396813
6622, -40.92639435, 7.44891317
6623, -40.63435219, 7.38490262
6624, -41.26206183, 7.34332088
6625, -41.14616868, 7.54940716
6626, -41.46849181, 7.03384542
6627, -20.47169972, 0.60566911
6628, -20.62665322, 0.05472742
6629, -20.79800389, 0.40783909
6630, -20.13942508, -0.08628649
6631, -20.44857235, -0.31882834
6632, -19.95628613, 0.41783015
6633, -19.82954720, 0.06886817
6634, -20.11081766, 0.83469987
6635, -34.42052525, 5.58441192
6636, -34.15030297, 5.94598215
6637, -34.11404364, 5.63944828
6638, -34.47526786, 6.18145258
6639, -34.18294604, 6.23778143
6640, -34.75013164, 5.87104513
6641, -34.75893039, 6.14958297
6642, -34.73852746, 5.55867263
6643, -23.05285527, 0.72854953
6644, -23.26977376, 1.00497325
6645, -23.03163968, 0.95345766
6646, -23.64179676, 0.81652293
6647, -23.58018882, 1.10718679
6648, -23.39016226, 0.47947418
6649, -23.68622543, 0.54613816
6650, -23.06370288, 0.40958979
6651, -35.78202015, -3.42872585
6652, -35.32656471, -3.31662124
6653, -35.48633856, -3.58939681
6654, -35.46185207, -2.88011876
6655, -35.16655107, -3.04464577
6656, -35.91945149, -2.99674502
6657, -35.76132590, -2.71638962
6658, -36.07283098, -3.27221059
6659, -34.14379158, 8.47146712
6660, -33.70875558, 8.27341927
6661, -34.01877665, 8.16967461
6662, -33.52518844, 8.69248349
6663, -33.36076339, 8.37939837
6664, -33.96156432, 8.88077779
6665, -33.66231143, 8.97444765
6666, -34.29820192, 8.79346597
6667, -34.68783470, -7.43543329
6668, -35.13897535, -7.61513266
6669, -35.00527341, -7.31269660
6670, -34.95249430, -8.03274240
6671, -35.29039131, -7.93359081
6672, -34.51794151, -7.87164462
6673, -34.65993401, -8.14437205
6674, -34.34180700, -7.56394792
6675, -0.98914231, -0.96357971
6676, 6.78491590, -0.99550519
6677, -6.79139628, 1.00485503
6678, 10.67197995, -1.00407447
6679, -12.61553625, -1.00495165
6680, 14.55558348, 0.99883452
6681, 0.94075964, 1.03374673
6682, 0.94200233, -0.96726827
6683, -0.98905509, 1.03614798
6684, -4.85047937, -0.98304809
6685, -8.73322172, -1.00293495
6686, 6.78408332, 1.00470856
6687, -8.73318904, 0.99713225
6688, -2.91625412, 1.02825875
6689, -12.61557843, 0.99511028
6690, 10.67197806, 0.99609888
6691, 12.61321988, -1.00289141
6692, 2.88526121, -0.97709461
6693, 4.83436069, 1.01360402
6694, -14.55737322, -1.00239512
6695, -14.55743831, 0.99769062
6696, 14.55577942, -1.00123358
6697, 2.88449727, 1.02343552
6698, -2.91632545, -0.97151415
6699, 4.83570445, -0.98702109
6700, -6.79122974, -0.99483008
6701, -4.85102332, 1.01613252
6702, 8.72993168, 0.99824977
6703, -10.67453319, 0.99436940
6704, -10.67454983, -1.00559256
6705, 8.73013086, -1.00167889
6706, 12.61324218, 0.99733096
6707, 2.89705780, -1.98717082
6708, 1.91334772, -0.97281300
6709, 0.95516248, -1.98197192
6710, 1.92621395, -1.98515033
6711, -0.98099897, -1.97966949
6712, -0.02368024, -0.96562982
6713, -0.01281996, -1.98123002
6714, -4.85157058, -1.99034545
6715, -5.82064268, -0.98952081
6716, -6.79252376, -1.99707860
6717, -5.82196044, -1.99408619
6718, 6.78825631, 2.00273110
6719, 4.84225938, 2.00776864
6720, 5.81005772, 1.00868788
6721, 5.81584246, 2.00491004
6722, -10.67538330, -2.00310898
6723, -8.73411970, -2.00157220
6724, -9.70402547, -1.00451980
6725, -9.70484149, -2.00241497
6726, -2.91440303, 2.01579014
6727, -4.85200217, 2.00900836
6728, -3.88285775, 1.02157204
6729, -3.88282138, 2.01186235
6730, -5.82096673, 1.00995550
6731, -6.79266198, 2.00267316
6732, -5.82222997, 2.00548372
6733, 6.78898694, -1.99746292
6734, 8.73236567, -2.00088219
6735, 7.75812375, -0.99892197
6736, 7.76102699, -1.99933726
6737, 10.67393127, -2.00226464
6738, 9.70141873, -1.00315853
6739, 9.70337261, -2.00167007
6740, 11.64268170, -1.00353802
6741, 12.61521058, -2.00161530
6742, 11.64465197, -2.00193990
6743, -7.76237023, 1.00049016
6744, -8.73295396, -0.00297965
6745, -7.76236758, -0.99934102
6746, -6.79111961, 0.00566640
6747, -7.76212642, 0.00083565
6748, -7.76339701, -1.99956430
6749, -11.64507378, -1.00534368
6750, -12.61648733, -2.00269616
6751, -11.64597174, -2.00288693
6752, -8.73411589, 1.99850061
6753, -7.76342450, 2.00037270
6754, -4.85081748, 0.01825927
6755, -5.82069993, 0.01133978
6756, 14.55716090, -2.00071376
6757, 13.58446485, -1.00192509
6758, 13.58619441, -2.00109270
6759, -13.58645048, 0.99642814
6760, -14.55727138, -0.00264126
6761, -13.58643524, -1.00359778
6762, -12.61539734, -0.00533041
6763, -13.58630789, -0.00391031
6764, -14.55803823, -2.00132804
6765, -13.58725356, -2.00197853
6766, -12.61652540, 1.99731503
6767, -14.55808807, 1.99873566
6768, -13.58728958, 1.99806796
6769, 15.52768798, 0.99944496
6770, 14.55543878, -0.00134037
6771, 15.52788712, -1.00056351
6772, 15.52766801, -0.00062636
6773, -15.52870122, -1.00108106
6774, -15.52901622, -2.00061711
6775, 15.52858254, -2.00032429
6776, -15.52873393, 0.99895681
6777, -15.52904251, 1.99941418
6778, -15.52864154, -0.00121144
6779, 14.55704128, 1.99935367
6780, 15.52848718, 1.99969448
6781, 10.67392803, 1.99787321
6782, 11.64271031, 0.99665254
6783, 12.61521136, 1.99855709
6784, 11.64466729, 1.99821026
6785, 13.58444640, 0.99820061
6786, 13.58614225, 1.99901008
6787, 12.61290069, -0.00302315
6788, 10.67152336, -0.00420834
6789, 11.64230496, -0.00369289
6790, 13.58413278, -0.00207329
6791, -10.67431469, -0.00608525
6792, -11.64513680, 0.99478840
6793, -11.64490995, -0.00573403
6794, 8.72930098, -0.00173551
6795, 9.70139888, 0.99697206
6796, 9.70083476, -0.00326138
6797, 7.75775130, 1.00111349
6798, 8.73223907, 1.99916317
6799, 7.76069106, 2.00070070
6800, -10.67539115, 1.99694035
6801, -9.70402751, 0.99566404
6802, -9.70482957, 1.99762879
6803, 5.81096798, -0.99165352
6804, 4.84343350, -1.99279920
6805, 5.81665766, -1.99541389
6806, 3.86100824, -0.98277683
6807, 3.87068986, -1.99049455
6808, -11.64598981, 1.99713064
6809, 9.70332358, 1.99838133
6810, -9.70379258, -0.00475738
6811, 6.78342536, 0.00513716
6812, 7.75706240, 0.00133671
6813, 4.83315314, 0.01469234
6814, 5.80909211, 0.00942507
6815, -0.02456624, 1.03513612
6816, -0.99072508, 0.03961448
6817, 0.93912538, 0.03616076
6818, -0.02597354, 0.03763262
6819, -3.88266939, -0.97805530
6820, -2.91725175, 0.03143916
6821, -3.88315573, 0.02396437
6822, 3.86015439, 1.01766148
6823, 2.88245058, 0.02556522
6824, 3.85846966, 0.01927536
6825, -1.95184125, -0.96862583
6826, -2.91445290, -1.98455001
6827, -1.94726169, -1.98254544
6828, 2.89653517, 2.01319660
6829, 3.86995970, 2.00989529
6830, 0.95418590, 2.01862457
6831, 1.91344960, 1.02710415
6832, 1.92563019, 2.01529139
6833, -0.98065897, 2.01975683
6834, -0.01327254, 2.01902587
6835, -3.88262937, -1.98786406
6836, 1.91083276, 0.02998051
6837, -1.95161908, 1.03096292
6838, -1.95312235, 0.03465356
6839, -1.94706746, 2.01724344
6840, 1.93369521, -2.49257516
6841, 2.41163587, -1.98616057
6842, 2.90441125, -2.49358541
6843, 2.41905323, -2.49308029
6844, 2.89115950, -1.48213271
6845, 1.91978083, -1.47898166
6846, 2.39930446, -0.97495381
6847, 2.40547017, -1.48055719
6848, 1.42767503, -0.97004063
6849, 1.44068822, -1.98356113
6850, 0.94858241, -1.47462009
6851, 1.43418162, -1.47680088
6852, 0.96287536, -2.49098596
6853, 1.44828528, -2.49178056
6854, -0.50641128, -0.96460476
6855, -0.01825010, -1.47342992
6856, -0.49690947, -1.98044976
6857, -0.98507064, -1.47162460
6858, -0.50166037, -1.47252726
6859, -0.97579360, -2.48983475
6860, -0.00640998, -2.49061501
6861, -0.49110179, -2.49022488
6862, 0.47117126, -1.98160097
6863, 0.47823269, -2.49080049
6864, 0.45916105, -0.96644904
6865, 0.46516615, -1.47402501
6866, -6.79332070, -2.49853930
6867, -6.30724210, -1.99558240
6868, -5.82274492, -2.49704310
6869, -6.30803281, -2.49779120
6870, -5.33676551, -1.99221582
6871, -4.85225588, -2.49517273
6872, -5.33750040, -2.49610791
6873, -4.85102497, -1.48669677
6874, -5.82130156, -1.49180350
6875, -5.33556102, -0.98628445
6876, -5.33616327, -1.48925014
6877, -6.30593621, -0.99217545
6878, -6.79187675, -1.49595434
6879, -6.30658915, -1.49387892
6880, 6.29707052, 1.00669822
6881, 5.81295009, 1.50679896
6882, 6.30204938, 2.00382057
6883, 6.78616982, 1.50371983
6884, 6.29955995, 1.50525939
6885, 6.79118698, 2.50136555
6886, 5.81968593, 2.50245502
6887, 6.30543646, 2.50191028
6888, 5.32905092, 2.00633934
6889, 4.84760028, 2.50388432
6890, 5.33364310, 2.50316967
6891, 4.83831003, 1.51068633
6892, 5.32220921, 1.01114595
6893, 5.32563006, 1.50874264
6894, -10.18928765, -1.00505618
6895, -9.70443348, -1.50346738
6896, -10.19011239, -2.00276197
6897, -10.67496657, -1.50435077
6898, -10.18970002, -1.50390908
6899, -10.67592694, -2.50155449
6900, -9.70536192, -2.50120748
6901, -10.19064443, -2.50138099
6902, -9.21948059, -2.00199359
6903, -8.73470691, -2.50078610
6904, -9.22003442, -2.50099679
6905, -8.73367071, -1.50225357
6906, -9.21862359, -1.00372737
6907, -9.21905209, -1.50286048
6908, -3.39955593, 1.02491540
6909, -3.88283956, 1.51671720
6910, -3.39861221, 2.01382625
6911, -2.91532857, 1.52202445
6912, -3.39908407, 1.51937082
6913, -2.91308387, 2.50789507
6914, -3.88258716, 2.50593118
6915, -3.39783551, 2.50691312
6916, -4.36741178, 2.01043536
6917, -4.85247167, 2.50450418
6918, -4.36752942, 2.50521768
6919, -4.85151274, 1.51257044
6920, -4.36694053, 1.01885228
6921, -4.36717615, 1.51464382
6922, -6.79202913, 1.50376410
6923, -6.30744597, 2.00407844
6924, -5.82159835, 1.50771961
6925, -6.30618150, 1.00740527
6926, -6.30681374, 1.50574185
6927, -5.33599502, 1.01304401
6928, -5.33711607, 2.00724604
6929, -5.33655555, 1.51014502
6930, -5.82287969, 2.50274186
6931, -5.33767568, 2.50362302
6932, -6.79338981, 2.50133658
6933, -6.30813475, 2.50203922
6934, 7.27151982, -0.99721358
6935, 7.75957537, -1.49912961
6936, 7.27500697, -1.99840009
6937, 6.78695142, -1.49648406
6938, 7.27326339, -1.49780684
6939, 6.79155229, -2.49873146
6940, 7.76286644, -2.49966863
6941, 7.27720936, -2.49920005
6942, 8.24669633, -2.00010973
6943, 8.73382989, -2.50044109
6944, 8.24834817, -2.50005486
6945, 8.73124826, -1.50128054
6946, 8.24412730, -1.00030043
6947, 8.24541182, -1.50020508
6948, 9.70462748, -2.50083504
6949, 10.18865194, -2.00196736
6950, 10.67520093, -2.50113232
6951, 10.18991421, -2.50098368
6952, 10.67295561, -1.50316955
6953, 9.70239567, -1.50241430
6954, 10.18669934, -1.00361650
6955, 10.18767564, -1.50279193
6956, 9.21577479, -1.00241871
6957, 9.21786914, -2.00127613
6958, 9.21682197, -1.50184742
6959, 9.21922869, -2.50063807
6960, 12.61421523, -1.50225335
6961, 12.12993127, -2.00177760
6962, 11.64366684, -1.50273896
6963, 12.12795079, -1.00321471
6964, 12.12894103, -1.50249616
6965, 11.15733083, -1.00380624
6966, 11.15929162, -2.00210227
6967, 11.15831122, -1.50295426
6968, 11.64585540, -2.50096995
6969, 11.16052816, -2.50105113
6970, 12.61642882, -2.50080765
6971, 12.13114211, -2.50088880
6972, -6.79125794, 0.50526072
6973, -7.27662301, 0.00325103
6974, -7.76224832, 0.50066291
6975, -7.27688325, 1.00267259
6976, -7.27675313, 0.50296181
6977, -8.24777964, 0.99881120
6978, -8.24754019, -0.00107200
6979, -8.73307150, 0.49707630
6980, -8.24765991, 0.49886960
6981, -8.73308784, -0.50295730
6982, -7.76224700, -0.49925269
6983, -8.24779465, -1.00113798
6984, -8.24766742, -0.50110499
6985, -7.27679866, -0.99708555
6986, -6.79117468, -0.49458184
6987, -7.27671084, -0.49691726
6988, -8.24875835, -2.00056825
6989, -7.76405144, -2.49978215
6990, -8.24937918, -2.50028412
6991, -7.27796038, -1.99832145
6992, -7.27868607, -2.49916072
6993, -7.76288229, -1.49945266
6994, -7.27737952, -1.49770350
6995, -8.24827650, -1.50085312
6996, -11.64651528, -2.50144346
6997, -11.16067752, -2.00299795
6998, -11.16122111, -2.50149898
6999, -11.64552276, -1.50411530
7000, -11.15981181, -1.00546812
7001, -11.16024466, -1.50423304
7002, -12.13030502, -1.00514767
7003, -12.13122954, -2.00279154
7004, -12.61601179, -1.50382390
7005, -12.13076728, -1.50396960
7006, -12.61706720, -2.50134808
7007, -12.13179124, -2.50139577
7008, -7.76289736, 1.50043143
7009, -7.27804324, 2.00152293
7010, -7.27746325, 1.50209776
7011, -7.76406519, 2.50018635
7012, -7.27872750, 2.50076146
7013, -8.24877020, 1.99943666
7014, -8.73470500, 2.49925031
7015, -8.24938510, 2.49971833
7016, -8.73365247, 1.49781643
7017, -8.24827492, 1.49912393
7018, -6.30590977, 0.00850309
7019, -5.82067131, -0.48909052
7020, -6.30592299, -0.49183618
7021, -5.33575871, 0.01479952
7022, -4.85064843, -0.48239441
7023, -5.33565987, -0.48574247
7024, -4.85092040, 0.51719589
7025, -5.82083333, 0.51064764
7026, -5.33587686, 0.51392177
7027, -6.30604564, 0.50795418
7028, 13.09884236, -1.00240825
7029, 13.58532963, -1.50150890
7030, 13.10070250, -2.00135400
7031, 13.09977243, -1.50188112
7032, 13.58721485, -2.50054635
7033, 13.10182184, -2.50067700
7034, 14.07167766, -2.00090323
7035, 14.55799221, -2.50035688
7036, 14.07260353, -2.50045162
7037, 14.55647016, -1.50097367
7038, 14.07012213, -1.00157934
7039, 14.07089989, -1.50124128
7040, -12.61548788, 0.49488994
7041, -13.10085261, -0.00462036
7042, -13.58637919, 0.49625892
7043, -13.10101446, 0.99576921
7044, -13.10093353, 0.49557443
7045, -14.07194440, 0.99705938
7046, -14.07178963, -0.00327578
7047, -14.55735484, 0.49752468
7048, -14.07186701, 0.49689180
7049, -14.55732230, -0.50251819
7050, -13.58637157, -0.50375405
7051, -14.07190423, -1.00299645
7052, -14.07184693, -0.50313612
7053, -13.10098575, -1.00427472
7054, -12.61546679, -0.50514103
7055, -13.10091918, -0.50444754
7056, -14.55843088, -2.50066402
7057, -14.07264590, -2.00165329
7058, -13.58774443, -2.50098926
7059, -14.07308765, -2.50082664
7060, -13.10187045, -2.00233734
7061, -13.10240581, -2.50116867
7062, -13.58684440, -1.50278816
7063, -13.10142810, -1.50330603
7064, -14.55770573, -1.50186158
7065, -14.07227507, -1.50232487
7066, -13.58687003, 1.49724805
7067, -13.10190749, 1.99769149
7068, -12.61605192, 1.49621266
7069, -13.10146097, 1.49673035
7070, -12.61708623, 2.49865751
7071, -13.58776244, 2.49903398
7072, -13.10242433, 2.49884575
7073, -14.07268883, 1.99840181
7074, -14.55845580, 2.49936783
7075, -14.07310912, 2.49920090
7076, -14.55776319, 1.49821314
7077, -14.07231661, 1.49773060
7078, 16.01394356, -1.00028175
7079, 15.52777757, -0.50059494
7080, 16.01383401, -0.00031318
7081, 16.01388878, -0.50029747
7082, 15.52767800, 0.49940930
7083, 16.01384399, 0.99972248
7084, 16.01383900, 0.49970465
7085, 15.04163573, 0.99913974
7086, 15.04155340, -0.00098337
7087, 14.55551113, 0.49874707
7088, 15.04159456, 0.49907818
7089, 14.55560910, -0.50128698
7090, 15.04183327, -1.00089854
7091, 15.04169333, -0.50094096
7092, -16.01450811, -2.00030855
7093, -15.52921399, -2.50030855
7094, -16.01460700, -2.50015428
7095, -15.04352723, -2.00097258
7096, -15.04382244, -2.50048629
7097, -15.52885872, -1.50084908
7098, -15.04303722, -1.00173809
7099, -15.04328223, -1.50135533
7100, -16.01435061, -1.00054053
7101, -16.01442936, -1.50042454
7102, 15.52823483, -1.50044390
7103, 15.04287172, -2.00051903
7104, 15.04235249, -1.50070879
7105, 15.52899715, -2.50016215
7106, 15.04349468, -2.50025951
7107, 16.01429127, -2.00016215
7108, 16.01449858, -2.50008107
7109, 16.01411741, -1.50022195
7110, -15.04308612, 0.99832372
7111, -15.52888822, 1.49918549
7112, -15.04356529, 1.99907492
7113, -15.04332571, 1.49869932
7114, -15.52922714, 2.49970709
7115, -15.04384147, 2.49953746
7116, -16.01452126, 1.99970709
7117, -16.01461357, 2.49985354
7118, -16.01436697, 0.99947841
7119, -16.01444411, 1.49959275
7120, -15.04295646, -0.00192635
7121, -15.52868774, 0.49887269
7122, -15.04302129, 0.49819869
7123, -16.01432077, -0.00060572
7124, -16.01434387, 0.49943634
7125, -15.52867138, -0.50114625
7126, -16.01433569, -0.50057312
7127, -15.04299684, -0.50183222
7128, 15.52894947, 2.49984724
7129, 15.04276423, 1.99952408
7130, 14.55793240, 2.49967684
7131, 15.04344094, 2.49976204
7132, 14.55631238, 1.49909410
7133, 15.52808758, 1.49956972
7134, 15.04219998, 1.49933191
7135, 16.01424359, 1.99984724
7136, 16.01404379, 1.49978486
7137, 16.01447474, 2.49992362
7138, 11.64586306, 2.49910513
7139, 11.15929766, 1.99804174
7140, 10.67519931, 2.49893660
7141, 11.16053118, 2.49902087
7142, 10.67295304, 1.49698604
7143, 11.64368880, 1.49743140
7144, 11.15734418, 0.99637571
7145, 11.15832092, 1.49720872
7146, 12.12797625, 0.99699175
7147, 12.12993933, 1.99838368
7148, 12.61422677, 1.49794403
7149, 12.12895779, 1.49768771
7150, 12.61642921, 2.49927855
7151, 12.13114613, 2.49919184
7152, 13.58718877, 2.49950504
7153, 13.10067681, 1.99878359
7154, 13.10180899, 2.49939179
7155, 13.58529433, 1.49860535
7156, 13.09884429, 0.99776578
7157, 13.09976055, 1.49827469
7158, 14.07001494, 0.99851756
7159, 14.07159176, 1.99918188
7160, 14.07080335, 1.49884972
7161, 14.07256059, 2.49959094
7162, 10.67175165, -0.50414140
7163, 11.15691416, -0.00395061
7164, 11.64249333, -0.50361546
7165, 11.15712249, -0.50387843
7166, 12.12760283, -0.00335802
7167, 12.61306029, -0.50295728
7168, 12.12777681, -0.50328637
7169, 12.61307144, 0.49715390
7170, 11.64250763, 0.49647982
7171, 12.12778954, 0.49681686
7172, 10.67175071, 0.49594527
7173, 11.15712917, 0.49621255
7174, 13.09851673, -0.00254822
7175, 13.58429881, -0.50199919
7176, 13.09867955, -0.50247824
7177, 14.06978578, -0.00170683
7178, 14.06995396, -0.50164308
7179, 13.58428959, 0.49806366
7180, 14.06990036, 0.49840537
7181, 13.09868051, 0.49760878
7182, -12.13015364, -0.00553222
7183, -11.64499186, -0.50553885
7184, -12.13022933, -0.50533994
7185, -11.15961232, -0.00590964
7186, -10.67443226, -0.50583891
7187, -11.15971206, -0.50568888
7188, -10.67442394, 0.49414207
7189, -11.64502338, 0.49452719
7190, -11.15983499, 0.99457890
7191, -11.15972366, 0.49433463
7192, -12.13035762, 0.99494934
7193, -12.13025563, 0.49470856
7194, 9.21566528, 0.99761092
7195, 9.70111682, 0.49685534
7196, 9.21506787, -0.00249845
7197, 8.72961633, 0.49825713
7198, 9.21536658, 0.49755623
7199, 8.72971592, -0.50170720
7200, 9.70112674, -0.50320996
7201, 9.21542133, -0.50245858
7202, 10.18617906, -0.00373486
7203, 10.18643920, -0.50367568
7204, 10.18668847, 0.99653547
7205, 10.18643376, 0.49640030
7206, 8.73376659, 2.49958158
7207, 8.24646506, 1.99993194
7208, 7.76269847, 2.50035035
7209, 8.24823253, 2.49996597
7210, 7.27447368, 2.00171590
7211, 7.27694272, 2.50085795
7212, 7.75922118, 1.50090709
7213, 7.27091731, 1.00291102
7214, 7.27269550, 1.50231346
7215, 8.24384149, 0.99968163
7216, 8.73108538, 1.49870647
7217, 8.24515328, 1.49980678
7218, -9.21860828, 0.99639815
7219, -9.70442854, 1.49664642
7220, -9.21947273, 1.99806470
7221, -9.21904050, 1.49723143
7222, -9.70535596, 2.49881440
7223, -9.22003048, 2.49903235
7224, -10.19011036, 1.99728457
7225, -10.67593087, 2.49847017
7226, -10.19064341, 2.49864229
7227, -10.67496217, 1.49565487
7228, -10.18928035, 0.99501672
7229, -10.18969535, 1.49615065
7230, 4.84818734, -2.49639960
7231, 5.33004558, -1.99410654
7232, 5.82009353, -2.49770694
7233, 5.33414044, -2.49705327
7234, 6.30282230, -1.99643841
7235, 6.30582291, -2.49821920
7236, 5.81381282, -1.49353371
7237, 6.29794194, -0.99357936
7238, 6.30038212, -1.49500888
7239, 5.32333622, -0.98933730
7240, 4.83956898, -1.48991014
7241, 5.32669090, -1.49172192
7242, 3.37313472, -0.97993572
7243, 3.86584905, -1.48663569
7244, 3.38387383, -1.98883268
7245, 3.37850428, -1.48438420
7246, 3.87652140, -2.49524727
7247, 3.39046633, -2.49441634
7248, 4.35706168, -1.99164687
7249, 4.36235437, -2.49582344
7250, 4.34835635, -0.98489896
7251, 4.35270901, -1.48827292
7252, -11.16069048, 1.99703549
7253, -11.64652431, 2.49856532
7254, -11.16122759, 2.49851775
7255, -12.13125760, 1.99722283
7256, -12.13180527, 2.49861142
7257, -11.64556330, 1.49595952
7258, -12.13080761, 1.49608609
7259, -11.16026274, 1.49580720
7260, 9.70236123, 1.49767669
7261, 10.18862580, 1.99812727
7262, 10.18765714, 1.49733137
7263, 9.70460296, 2.49919066
7264, 10.18990114, 2.49906363
7265, 9.21778132, 1.99877225
7266, 9.21918478, 2.49938612
7267, 9.21672330, 1.49819158
7268, -9.70391004, 0.49545333
7269, -10.18905363, -0.00542132
7270, -10.18916699, 0.49479770
7271, -9.70390902, -0.50463859
7272, -10.18917064, -0.50523875
7273, -9.21837327, -0.00386852
7274, -9.21849843, -0.50379794
7275, -9.21849077, 0.49626482
7276, 6.78417063, -0.49518401
7277, 7.27024388, 0.00323694
7278, 7.75759307, -0.49879263
7279, 7.27088185, -0.49698832
7280, 8.24318169, -0.00019940
7281, 8.24365450, -0.50024991
7282, 7.75740685, 0.50122510
7283, 8.24351159, 0.49974111
7284, 6.78375434, 0.50492286
7285, 7.27058060, 0.50307398
7286, 6.29625874, 0.00728112
7287, 5.80957492, 0.50905648
7288, 6.29666463, 0.50698967
7289, 5.32112263, 0.01205871
7290, 4.83375692, 0.51414818
7291, 5.32166592, 0.51160233
7292, 4.83442880, -0.48616437
7293, 5.81003005, -0.49111423
7294, 5.32222942, -0.48863930
7295, 6.29710034, -0.49314912
7296, 0.93994251, 0.53495375
7297, 0.45657592, 0.03689669
7298, -0.02526989, 0.53638437
7299, 0.45809670, 1.03444143
7300, 0.45733631, 0.53566906
7301, -0.50681067, 1.03564205
7302, -0.50834931, 0.03862355
7303, -0.98989009, 0.53788123
7304, -0.50757999, 0.53713280
7305, -0.98993370, -0.46198261
7306, -0.02482689, -0.46399860
7307, -0.50738029, -0.46299061
7308, 0.94056385, -0.46555375
7309, 0.45786848, -0.46477618
7310, -3.88300674, 0.52276820
7311, -4.36698660, 0.02111182
7312, -4.36696357, 0.51998205
7313, -3.88291256, -0.47704547
7314, -4.36657438, -0.98055170
7315, -4.36678049, -0.47971994
7316, -3.39949742, -0.97478473
7317, -3.40020374, 0.02770176
7318, -2.91678860, -0.47003749
7319, -3.39985058, -0.47354148
7320, -2.91675294, 0.52984896
7321, -3.39987984, 0.52630858
7322, 2.88385589, -0.47576470
7323, 3.37046012, 0.02242029
7324, 3.85973895, -0.48175073
7325, 3.37179742, -0.47875772
7326, 4.34581140, 0.01698385
7327, 4.34708387, -0.48395755
7328, 3.85931203, 0.51846842
7329, 4.34725754, 1.01563275
7330, 4.34653447, 0.51630830
7331, 3.37232583, 1.02054850
7332, 2.88347393, 0.52450037
7333, 3.37139298, 0.52148440
7334, -2.91310880, -2.49227501
7335, -2.43085730, -1.98354773
7336, -1.94421908, -2.49127272
7337, -2.42866394, -2.49177386
7338, -1.46413033, -1.98110746
7339, -1.46000634, -2.49055373
7340, -1.94955147, -1.47558563
7341, -1.47049178, -0.96610277
7342, -1.46731106, -1.47360512
7343, -2.43408335, -0.97006999
7344, -2.91538917, -1.47803208
7345, -2.43247032, -1.47680886
7346, 3.86505705, 1.51377839
7347, 4.35610954, 2.00883197
7348, 4.35168354, 1.51223236
7349, 3.87615632, 2.50494765
7350, 4.36187830, 2.50441598
7351, 3.38324744, 2.01154595
7352, 2.90414994, 2.50659830
7353, 3.39015313, 2.50577297
7354, 2.89051622, 1.51831606
7355, 3.37778663, 1.51604722
7356, 1.93340333, 2.50764570
7357, 1.43990805, 2.01695798
7358, 0.96238707, 2.50931229
7359, 1.44789520, 2.50847899
7360, 0.94747277, 1.52618565
7361, 1.91953990, 1.52119777
7362, 1.42710462, 1.03042544
7363, 1.43350633, 1.52369171
7364, 2.39897344, 1.02526984
7365, 2.41108268, 2.01424400
7366, 2.40502806, 1.51975692
7367, 2.41877663, 2.50712200
7368, -0.01891939, 1.52708100
7369, 0.47045668, 2.01882522
7370, 0.46427669, 1.52663332
7371, -0.00663627, 2.50951294
7372, 0.47787540, 2.50941261
7373, -0.49696575, 2.01939135
7374, -0.97562360, 2.50987842
7375, -0.49112994, 2.50969568
7376, -0.98485703, 1.52795241
7377, -0.50188821, 1.52751670
7378, -3.88264938, -1.48295968
7379, -4.36709997, -1.98910476
7380, -4.36683718, -1.48482823
7381, -3.88249115, -2.49393203
7382, -4.36737352, -2.49455238
7383, -3.39854113, -1.98620704
7384, -3.39779998, -2.49310352
7385, -3.39901928, -1.48049588
7386, 1.42497907, 0.03307063
7387, 1.91209024, -0.47141625
7388, 1.42632705, -0.46848500
7389, 2.39664167, 0.02777286
7390, 2.39797307, -0.47359047
7391, 1.91214118, 0.52854233
7392, 2.39780755, 0.52652135
7393, 1.42604184, 0.53174804
7394, -1.47192372, 0.03713402
7395, -1.95237072, 0.53280824
7396, -1.47033708, 1.03355545
7397, -1.47113040, 0.53534474
7398, -2.43393660, 1.02961084
7399, -2.43518705, 0.03304636
7400, -2.43456183, 0.53132860
7401, -1.95248180, -0.46698613
7402, -2.43463520, -0.46851181
7403, -1.47120775, -0.46448437
7404, -1.94412196, 2.50862172
7405, -2.43073524, 2.01651679
7406, -2.42860292, 2.50825839
7407, -1.94934327, 1.52410318
7408, -2.43233592, 1.52306381
7409, -1.46386321, 2.01850013
7410, -1.46710015, 1.52602779
7411, -1.45987278, 2.50925007
7412, 30.55850312, -7.94077337
7413, 32.42269047, 9.09958263
7414, 45.69736012, -1.03274379
7415, 38.29011676, 11.08279020
7416, 24.75439631, -4.22542744
7417, 36.51067369, -10.59840897
7418, 24.75747910, 4.18686617
7419, 22.62958916, -3.09376500
7420, 45.63039357, -4.82504080
7421, 40.48560662, -11.24388767
7422, 22.53567167, 3.09004369
7423, 45.61387481, 6.53825075
7424, 42.69193117, 11.12745526
7425, 29.67729756, 6.87459336
7426, 32.46193990, -9.06393856
7427, 34.34677026, 9.88493592
7428, 45.72357733, 10.70883089
7429, 42.76796358, -11.09028656
7430, 45.82277491, -10.73706561
7431, 26.69093785, -4.79675349
7432, 18.56203856, -1.09052747
7433, 19.83662456, 2.05366723
7434, 29.67617704, -7.23061549
7435, 45.69031103, 4.64479901
7436, 45.70014943, 2.76298658
7437, 45.33148847, -6.94088047
7438, 26.86769228, 4.73037950
7439, 18.52787113, 1.21175532
7440, 19.93056533, -1.93298850
7441, 36.42100300, 10.56596800
7442, 34.43888508, -9.91312614
7443, 30.55576782, 8.00840786
7444, 40.39588828, 11.21435283
7445, 38.38627082, -11.10756098
7446, 23.56576134, 3.63465058
7447, 23.60974309, -3.66300236
7448, 23.91128825, 2.60440591
7449, 43.93856274, 4.45914213
7450, 23.98836991, -2.67509601
7451, 43.87753686, -4.75119876
7452, 31.07945398, -6.83065810
7453, 25.86151296, -3.58222661
7454, 30.98374748, 7.00693812
7455, 25.93771426, 3.46711834
7456, 27.76813978, -5.84152465
7457, 20.27027920, -0.53695266
7458, 28.11734333, 5.84568531
7459, 21.28928624, 2.32602660
7460, 45.71996586, -8.94945144
7461, 45.31491234, 8.66863425
7462, 21.43530208, -2.24729412
7463, 45.69572845, 0.86755885
7464, 45.69068060, -2.92671026
7465, 44.10593434, 10.94385398
7466, 41.56057793, -11.22101670
7467, 35.37499920, 10.22455043
7468, 33.44099984, -9.51488121
7469, 31.50277839, -8.54533034
7470, 33.36324245, 9.52338116
7471, 37.40471663, 10.90724165
7472, 35.46504922, -10.26475746
7473, 41.48911485, 11.22074439
7474, 37.49490516, -10.93143053
7475, 31.49320330, 8.59640471
7476, 39.31815480, 11.13874152
7477, 39.42094985, -11.17304002
7478, 44.21334483, -10.91427511
7479, 20.00427949, 0.88801617
7480, 36.79651894, 9.45158229
7481, 36.97883085, -9.53151322
7482, 40.47070721, 10.08531023
7483, 40.62299145, -10.21236255
7484, 28.38827066, -4.61029763
7485, 28.90474049, 4.47078441
7486, 43.84886240, 6.22203690
7487, 21.36472469, -0.96783666
7488, 43.72363035, -6.39637203
7489, 43.88318144, 0.76168879
7490, 32.93553754, -7.97823767
7491, 42.63453184, -9.72203225
7492, 34.65479982, 8.76581723
7493, 42.56001921, 9.81919164
7494, 21.14827690, 1.08698096
7495, 23.16591210, -2.13566241
7496, 22.99536313, 2.04119256
7497, 30.16973583, 5.22205697
7498, 43.93131660, -2.96459945
7499, 43.91997425, 2.64041467
7500, 31.98906111, -7.44148654
7501, 34.87315099, -8.86629144
7502, 31.98625766, 7.52847042
7503, 38.23051744, -10.01986845
7504, 44.07770697, -9.33172670
7505, 38.03472696, 9.95033056
7506, 32.87120603, 8.10373301
7507, 24.64607844, -3.07298985
7508, 24.61431043, 3.00224022
7509, 43.84693951, 9.48624839
7510, 42.19176546, 2.58816343
7511, 30.76910155, 3.91336690
7512, 42.24842735, -3.00646252
7513, 24.37795830, 1.65913508
7514, 24.46615787, -1.75548388
7515, 42.26262036, 8.57189287
7516, 42.26695143, 5.93109962
7517, 27.47606414, -3.70783796
7518, 33.67620916, 7.25283658
7519, 27.78658308, 3.55782073
7520, 42.14608908, -6.33929465
7521, 43.91241493, -1.12403447
7522, 29.31595940, -5.41667777
7523, 41.99111913, -8.18276621
7524, 35.88435046, -9.21094909
7525, 39.36968119, 9.95114181
7526, 39.58478093, -10.06866008
7527, 31.41429296, 5.80170099
7528, 41.42768166, 10.06238351
7529, 33.67722831, 8.48126466
7530, 33.90150480, -8.45132723
7531, 35.70534089, 9.09862866
7532, 43.48833697, 7.99172771
7533, 25.22574292, -2.52190919
7534, 43.77100772, -7.80587616
7535, 21.35881980, 0.02231223
7536, 25.20478057, 2.38908722
7537, 41.51232412, -10.11692982
7538, 22.46061881, -1.25667156
7539, 22.06741404, 1.43928376
7540, 33.42831913, -6.89594709
7541, 37.34303684, -8.38252801
7542, 42.17770188, -1.27120476
7543, 26.12866733, -1.65269649
7544, 38.23973360, 8.50672994
7545, 31.96569211, 4.54428444
7546, 24.88909400, 0.64111843
7547, 22.60962383, 0.26705838
7548, 41.86646562, 0.64690032
7549, 42.28131113, 4.30406117
7550, 26.86818451, 2.55736270
7551, 42.23077830, -4.69499870
7552, 37.08389501, 8.26891459
7553, 34.93962948, 7.59603100
7554, 29.06495161, -3.57105791
7555, 29.60010534, 3.23353844
7556, 26.68114496, -2.79036537
7557, 32.54891833, 6.40834306
7558, 35.33145072, -7.88703216
7559, 40.90545819, 8.90642595
7560, 38.61663174, -8.64243631
7561, 23.49262622, 1.07586329
7562, 28.83714703, -6.59728528
7563, 42.16656336, 7.37403844
7564, 40.99933551, -9.34552431
7565, 23.55991265, -1.25788193
7566, 40.60193756, 2.64781705
7567, 27.26803088, -1.89933085
7568, 40.65429236, -3.02798687
7569, 37.28926114, 7.10773863
7570, 37.57746057, -7.16001946
7571, 40.79699145, 5.79501584
7572, 40.56104493, -6.18417695
7573, 34.28920539, 5.84686917
7574, 29.90784120, -4.38701400
7575, 26.14357714, 1.30169105
7576, 40.84149497, 7.29120841
7577, 30.20381433, -6.14828874
7578, 28.20691015, -2.67717408
7579, 28.56001599, 2.50622835
7580, 33.14052013, 5.18017095
7581, 31.38710094, 2.71275008
7582, 36.21613375, -8.18028700
7583, 39.90982924, -8.91964909
7584, 39.48346450, 8.64691350
7585, 36.00458817, 7.95501984
7586, 32.47442700, -6.36241968
7587, 23.91456348, -0.02429584
7588, 25.12603709, -0.62386121
7589, 34.40880956, -7.40250006
7590, 32.93798697, -5.27702203
7591, 29.15790329, -1.61428605
7592, 34.91291648, 4.59558939
7593, 40.59280464, -1.45703867
7594, 32.53903619, 3.32428711
7595, 30.73951875, -5.12760639
7596, 40.42967342, 1.19440821
7597, 40.64539456, -4.62259996
7598, 36.26468254, 6.82816607
7599, 36.15458847, -7.00895469
7600, 40.72469801, 4.23227861
7601, 38.90777314, -7.36975810
7602, 39.49245723, 7.24927332
7603, 27.72924643, 1.44869855
7604, 29.77358412, -2.70188020
7605, 26.34211007, -0.30058995
7606, 33.93374167, -5.79573569
7607, 30.24630946, 2.05672818
7608, 31.58006347, -5.78302504
7609, 38.28172232, 7.24967624
7610, 40.31922636, -7.64820056
7611, 35.34070052, 6.45681104
7612, 33.38742380, -4.16619032
7613, 32.02383156, 1.60706130
7614, 39.13969853, -2.98493457
7615, 30.33237037, -1.87322277
7616, 39.10567313, 2.68016139
7617, 37.83129522, 5.92238901
7618, 36.64353734, -5.65841080
7619, 27.91996203, -0.46450665
7620, 37.74220082, -5.90741232
7621, 39.07355325, -6.00951407
7622, 30.56408355, -3.46981122
7623, 39.36958336, 5.77642805
7624, 29.09334792, 1.46826334
7625, 33.72337594, 3.91657836
7626, 34.98081074, -6.32356087
7627, 32.03156069, -4.78945562
7628, 39.10582741, -4.52365919
7629, 36.19231757, 5.48822533
7630, 39.15876026, -1.52615869
7631, 31.28584823, -2.55204547
7632, 35.50980193, 3.32269596
7633, 35.51634387, -5.16161290
7634, 39.06158183, 1.20054127
7635, 37.85860521, 4.24771136
7636, 30.92833352, 0.91457964
7637, 37.43559028, -4.51850781
7638, 32.22425825, -3.58848459
7639, 29.63722284, -0.02611278
7640, 34.41555700, -4.67810389
7641, 39.24208116, 4.23169099
7642, 31.31467435, -4.23286458
7643, 33.90812353, -3.15488778
7644, 35.96423241, -3.91281577
7645, 34.26563425, 2.50462588
7646, 37.46173104, 2.74347709
7647, 32.73109872, 0.56357992
7648, 30.87679124, -0.86611872
7649, 37.85417939, -1.44657468
7650, 33.05818145, -2.44418009
7651, 36.68859733, 3.96376081
7652, 37.67466428, -2.81729166
7653, 39.11246842, -0.16486255
7654, 37.66050275, 1.04502523
7655, 34.73216558, -2.31991986
7656, 36.24501829, -2.50705602
7657, 32.09722481, -1.35690946
7658, 36.01313844, 2.09072807
7659, 34.79477402, -3.57328529
7660, 33.67581537, 1.37658150
7661, 37.84309146, -0.28932055
7662, 33.05908419, 2.21454282
7663, 40.43609902, -0.03477080
7664, 31.66562755, -0.11199717
7665, 34.98937879, -0.85549345
7666, 33.62628335, -0.62863359
7667, 36.27129325, 0.74003809
7668, 35.07076889, 1.74200078
7669, 36.58700610, -0.87310333
7670, 33.75463537, -1.78976494
7671, 34.75560764, 0.55550728
7672, 29.34641671, -7.75239560
7673, 29.27676545, -6.89634214
7674, 28.72083252, -7.29340135
7675, 29.10881081, -7.34701472
7676, 28.53669414, -1.10712053
7677, 29.40180583, -0.85390014
7678, 28.76121341, -0.14802201
7679, 28.89912797, -0.70053489
7680, 34.36639207, -0.79184012
7681, 34.95829733, -0.20668739
7682, 34.13835133, 0.01273012
7683, 34.47643426, -0.32178399
7684, 37.77034979, 3.55828779
7685, 37.25849695, 4.17385754
7686, 36.96307800, 3.37579463
7687, 37.33205895, 3.68275782
7688, 37.17753315, -5.82989793
7689, 37.70408550, -5.29012410
7690, 36.92291702, -5.11757352
7691, 37.27088675, -5.39384998
7692, 19.22824514, 1.78962818
7693, 19.36499161, 0.90057160
7694, 19.95561806, 1.47725315
7695, 19.49409601, 1.38769907
7696, 30.12154757, 7.60088986
7697, 30.43973445, 6.85828374
7698, 30.79525856, 7.52219949
7699, 30.43500996, 7.31633591
7700, 44.50190367, 9.22203817
7701, 43.67961394, 8.82007660
7702, 44.39096870, 8.17498901
7703, 44.20359394, 8.73059070
7704, 21.32798787, -1.50490362
7705, 22.01779179, -1.78659352
7706, 21.85855569, -1.05022874
7707, 21.74143155, -1.46282032
7708, 19.29771003, -1.66135682
7709, 20.10677295, -1.29069948
7710, 19.45191492, -0.67214421
7711, 19.60576278, -1.19994628
7712, 41.08257822, 1.06225378
7713, 40.38894829, 0.57753071
7714, 41.08224452, 0.15567893
7715, 40.87250347, 0.59928744
7716, 44.45884314, -6.52300442
7717, 43.68620645, -7.10778364
7718, 44.49040890, -7.53039216
7719, 44.23672221, -7.05258442
7720, 26.50469617, 2.03281604
7721, 26.94913366, 1.25587263
7722, 27.27538539, 2.08690297
7723, 26.90811438, 1.78246574
7724, 28.14645053, 2.08610183
7725, 28.49165915, 1.34125671
7726, 28.86337220, 2.01791710
7727, 28.48526900, 1.81104022
7728, 37.89188461, -0.86504327
7729, 37.26409430, -0.45947637
7730, 37.26745231, -1.28289126
7731, 37.45601357, -0.86907870
7732, 21.12759940, 1.62737950
7733, 21.62391993, 1.22004063
7734, 21.78615631, 1.87964235
7735, 21.50878673, 1.59133192
7736, 25.59261174, -1.18422737
7737, 26.30043391, -0.94219563
7738, 25.76047805, -0.38580320
7739, 25.87656957, -0.84411397
7740, 35.79628141, 6.68008754
7741, 35.64390188, 5.97187236
7742, 36.31486849, 6.25778123
7743, 35.92359476, 6.28597621
7744, 29.44712354, -2.27490277
7745, 30.07939043, -2.31383185
7746, 29.83495641, -1.67404467
7747, 29.77391818, -2.07762997
7748, 26.38385638, -2.31508617
7749, 27.00384048, -2.38620413
7750, 26.76801192, -1.69832833
7751, 26.70830013, -2.12548054
7752, 37.77520047, 7.21759512
7753, 37.44804060, 6.56190178
7754, 38.17324001, 6.65162748
7755, 37.79966199, 6.79144365
7756, 31.39141316, -1.14567428
7757, 31.94020212, -0.63043588
7758, 31.22340599, -0.44637209
7759, 31.52803605, -0.75362954
7760, 42.82472289, 8.38232185
7761, 42.16339861, 7.98581604
7762, 42.78172130, 7.54381563
7763, 42.60829792, 7.97310699
7764, 34.22516096, -2.75025643
7765, 34.32695053, -3.40252108
7766, 34.85990095, -3.02114352
7767, 34.47297951, -3.04194335
7768, 37.93233069, -11.05226278
7769, 38.39430950, -10.62573280
7770, 37.75282432, -10.49899404
7771, 38.03126079, -10.71060593
7772, 23.08017141, 0.76064521
7773, 23.25294004, 0.03336795
7774, 23.70974815, 0.60232528
7775, 23.34351927, 0.45595661
7776, 32.17883938, -4.28440622
7777, 31.66384254, -3.88450393
7778, 31.65527432, -4.54555364
7779, 31.84074546, -4.22436953
7780, 35.75569344, -8.06798538
7781, 36.27150061, -7.66888238
7782, 35.63269530, -7.45973814
7783, 35.89107328, -7.71751012
7784, 37.84122087, 11.02919696
7785, 37.61747050, 10.45673281
7786, 38.25190614, 10.58167014
7787, 37.90649124, 10.67409887
7788, 33.16399088, 7.67688504
7789, 33.74574072, 7.95632143
7790, 33.26146156, 8.32888464
7791, 33.39680735, 7.97212923
7792, 40.94705340, 10.11534518
7793, 40.58722686, 9.54924392
7794, 41.27675145, 9.53124938
7795, 40.93712642, 9.71548568
7796, 41.06312962, -10.21804165
7797, 41.33616455, -9.67999577
7798, 40.74993976, -9.77173711
7799, 41.05073315, -9.88915470
7800, 20.87260357, -0.85282354
7801, 21.40559849, -0.47594839
7802, 20.85860309, -0.14864092
7803, 21.02864444, -0.49122247
7804, 22.80528843, -1.79528727
7805, 23.39163886, -1.71922810
7806, 23.07750569, -1.16645043
7807, 23.08171545, -1.55576292
7808, 24.42707832, 0.36912668
7809, 24.48708480, -0.38492832
7810, 25.05528166, 0.09065014
7811, 24.65100431, 0.01513696
7812, 33.99800950, 1.83967873
7813, 33.57602156, 2.42040116
7814, 33.32474866, 1.76538060
7815, 33.64651033, 2.01538836
7816, 25.21618611, -5.05328798
7817, 24.39283074, -4.81530806
7818, 24.80422028, -5.20792352
7819, 24.39091271, 4.80192635
7820, 25.23803676, 5.02891201
7821, 24.80871597, 5.19582064
7822, 46.59120286, 4.72888154
7823, 45.69967410, 3.70443393
7824, 46.59876069, 2.82428471
7825, 46.59735772, 3.77614783
7826, 46.49333697, -6.82652017
7827, 46.55623375, -4.82805480
7828, 45.54265799, -5.79853764
7829, 46.51284420, -5.81349782
7830, 46.54928308, 6.64795102
7831, 45.66477923, 5.58470519
7832, 46.57650226, 5.68257188
7833, 32.36559824, 1.08540625
7834, 31.48331283, 1.27141304
7835, 31.30563950, 0.38610881
7836, 32.18881827, 0.20865680
7837, 31.83623051, 0.73993260
7838, 31.70078219, 2.14871996
7839, 30.81707620, 2.38930975
7840, 30.57545710, 1.47646271
7841, 31.14434233, 1.82106310
7842, 21.13911203, -3.05088693
7843, 20.61248602, -2.11305341
7844, 19.70352360, -2.61806563
7845, 20.42031661, -2.81802829
7846, 31.26242751, -9.11059008
7847, 31.02954726, -8.25546879
7848, 30.28836862, -8.53083672
7849, 30.78223292, -8.83553107
7850, 37.57394811, 1.80802802
7851, 38.36326494, 1.14708574
7852, 39.06944159, 1.92590645
7853, 38.35012564, 2.69165182
7854, 38.33133877, 1.89993677
7855, 39.17299149, 3.45506453
7856, 39.85226762, 2.67278803
7857, 40.67152357, 3.43798520
7858, 39.97712019, 4.22672446
7859, 39.91724693, 3.44637727
7860, 40.52378624, -0.71296288
7861, 39.77778910, -0.11498191
7862, 39.14413170, -0.83699140
7863, 39.86188062, -1.50878089
7864, 39.82451537, -0.79520889
7865, 45.69792446, 1.81609572
7866, 46.59775528, 0.91526816
7867, 46.59856333, 1.86995303
7868, 33.93759572, -9.71978744
7869, 33.21570610, -10.05295007
7870, 34.21957109, -10.45072913
7871, 33.71555690, -10.25720277
7872, 39.15749130, -2.24069347
7873, 39.88965736, -3.01600149
7874, 40.63591152, -2.23343960
7875, 39.88518475, -2.25027649
7876, 46.59746195, -0.99602486
7877, 45.69743216, -1.98083896
7878, 46.59192601, -2.90645971
7879, 46.59660707, -1.95141194
7880, 32.94983949, -9.29572821
7881, 32.22797712, -9.61345464
7882, 32.71988777, -9.83883300
7883, 38.48871185, -1.50835142
7884, 38.46423155, -0.21329965
7885, 38.49435747, -0.85623076
7886, 40.51920887, 1.88958864
7887, 39.75697283, 1.21940795
7888, 39.79739688, 1.92748778
7889, 34.17510717, 10.43871989
7890, 34.85668142, 10.05507289
7891, 35.20243443, 10.77918911
7892, 34.68585691, 10.61177688
7893, 30.22849900, -3.91919558
7894, 30.16131386, -3.08614778
7895, 29.42456958, -3.11337176
7896, 29.48829912, -3.99160984
7897, 29.82502866, -3.52803894
7898, 42.08952970, 1.69429691
7899, 41.37891652, 2.61506751
7900, 41.26934726, 1.79795087
7901, 46.60003317, 10.62914996
7902, 45.59698540, 9.77798192
7903, 46.48673734, 8.65499505
7904, 46.53454246, 9.66268800
7905, 36.23965659, 11.10503994
7906, 35.89859752, 10.39367545
7907, 35.72150713, 10.94417967
7908, 44.79331140, 0.81528087
7909, 44.80720724, 2.69867321
7910, 43.89633969, 1.70669008
7911, 44.79875233, 1.75939530
7912, 39.08374188, 0.50843029
7913, 39.75263925, 0.54761381
7914, 37.75330009, 0.34521895
7915, 38.41588292, 0.44761218
7916, 45.69637443, -0.08364785
7917, 46.59781522, -0.04083511
7918, 30.32651325, -4.76803186
7919, 31.02086981, -4.65948216
7920, 30.95729464, -3.86201257
7921, 30.63120101, -4.30151139
7922, 43.89225947, -0.18569442
7923, 44.80263211, -1.07503854
7924, 44.79613404, -0.13169035
7925, 37.18066508, -8.96743933
7926, 36.75095173, -8.27257476
7927, 36.07030509, -8.69050160
7928, 36.41981106, -9.36742018
7929, 36.60580831, -8.82547541
7930, 29.60483388, -4.88750455
7931, 28.72114561, -4.07320314
7932, 28.85757532, -5.02894559
7933, 29.16659016, -4.49350956
7934, 40.13192381, -10.14594982
7935, 40.50059558, -9.10364051
7936, 39.72144870, -9.50337815
7937, 40.27873867, -9.63149224
7938, 31.25747085, 9.13618681
7939, 31.95939572, 8.85564841
7940, 32.20858298, 9.62943820
7941, 31.73220646, 9.38961931
7942, 30.28389058, 8.54671882
7943, 31.02168339, 8.31733886
7944, 30.77893569, 8.86319978
7945, 31.98071160, -8.81221104
7946, 31.74355122, -9.36856695
7947, 38.24872304, 11.59061697
7948, 37.25548150, 11.39010783
7949, 37.74961313, 11.50397003
7950, 30.46911789, -5.62707912
7951, 29.76587632, -5.79053843
7952, 30.04060674, -5.26731711
7953, 33.43372991, 4.55169313
7954, 32.55601164, 4.85865654
7955, 32.25431781, 3.92843359
7956, 33.12625223, 3.61730306
7957, 32.84338678, 4.23823040
7958, 42.25082253, 3.45670653
7959, 41.49226992, 4.25864410
7960, 41.44834899, 3.44098655
7961, 45.67172482, -3.87204472
7962, 46.58018537, -3.86285252
7963, 32.88925070, 9.32120128
7964, 33.17922860, 10.05608637
7965, 32.69098854, 9.84963136
7966, 38.28519931, 7.86645238
7967, 37.64872553, 8.40072850
7968, 37.18860544, 7.67865695
7969, 37.72494868, 7.78934627
7970, 43.04471780, -4.71862410
7971, 42.19476765, -5.51740075
7972, 42.94690314, -6.36548722
7973, 43.80796082, -5.60311745
7974, 42.99782280, -5.55129418
7975, 32.64011271, 8.58582916
7976, 33.53467189, 8.99661764
7977, 33.08181414, 8.80696161
7978, 33.84876968, 9.70774153
7979, 33.67340968, 10.25211735
7980, 45.83359794, -11.61958132
7981, 46.65685558, -10.65516164
7982, 46.66441584, -11.57836511
7983, 21.96791956, 2.76805608
7984, 22.52408630, 1.73190010
7985, 22.75453417, 2.55210368
7986, 22.24517698, 2.23070164
7987, 36.28427304, -11.12017215
7988, 35.98793549, -10.43158715
7989, 35.24722868, -10.79740151
7990, 35.76618853, -10.96180370
7991, 40.36651583, 11.79909471
7992, 40.93622534, 11.22941654
7993, 41.46193093, 11.83148477
7994, 40.90959242, 11.82326861
7995, 34.18077827, -5.23705939
7996, 33.89659416, -4.43037888
7997, 33.16006884, -4.72116822
7998, 33.42993090, -5.53583588
7999, 33.66642354, -4.98076696
8000, 30.58924866, -1.37098934
8001, 30.81159845, -2.18085061
8002, 31.66323040, -2.03074787
8003, 31.12610112, -1.67331622
8004, 44.73550345, -4.78953824
8005, 44.63987699, -5.69746502
8006, 32.69821957, -8.51742646
8007, 33.66965514, -8.97941558
8008, 33.41895526, -8.22010816
8009, 33.18337790, -8.75433535
8010, 43.93797695, 3.55694373
8011, 44.80423877, 4.55161986
8012, 44.81211334, 3.62834314
8013, 38.29709017, -11.60224441
8014, 37.30068340, -11.40164486
8015, 37.79591647, -11.51533098
8016, 34.65730701, -9.38391998
8017, 34.94892877, -10.09306963
8018, 35.67982811, -9.73562367
8019, 35.37160124, -9.04605907
8020, 35.16390437, -9.56473899
8021, 40.61543993, -5.40863821
8022, 41.34285347, -6.27119531
8023, 41.43035536, -4.66092772
8024, 41.39699211, -5.46611030
8025, 36.61126939, 10.01797691
8026, 35.54379092, 9.66434000
8027, 36.24412468, 9.27106458
8028, 36.07464719, 9.83675356
8029, 45.51731910, 7.51953830
8030, 46.50381168, 7.63606584
8031, 36.93071313, 10.73920904
8032, 36.75350660, 11.25371772
8033, 34.73113066, -10.62866579
8034, 36.74729637, -10.07322788
8035, 36.20898507, -9.90172621
8036, 34.37569539, 7.41252865
8037, 33.99393800, 6.49227919
8038, 34.83955740, 6.16770618
8039, 35.12034530, 7.01055067
8040, 34.57428918, 6.77610517
8041, 28.19365950, 3.01304121
8042, 29.05692217, 2.87552976
8043, 29.26276545, 3.83837052
8044, 28.32397079, 4.03069793
8045, 28.70804587, 3.44059410
8046, 33.18052269, -7.43629781
8047, 34.14712048, -7.92519125
8048, 33.92042274, -7.14944931
8049, 33.66588647, -7.68402809
8050, 41.50133505, -11.82947369
8051, 41.01462116, -11.24839446
8052, 40.41248850, -11.81031144
8053, 40.95098303, -11.82977652
8054, 39.95448583, -11.21429770
8055, 39.34276479, -11.71903075
8056, 39.87608197, -11.77034935
8057, 20.07400056, 0.23075486
8058, 21.24904452, 0.54852739
8059, 20.60233291, 0.98079473
8060, 20.69619654, 0.38950396
8061, 38.78650403, 11.10589662
8062, 39.29133889, 11.70417898
8063, 38.76224188, 11.65088607
8064, 33.68283140, -6.34765015
8065, 34.69271815, -6.87143988
8066, 34.45221368, -6.05475622
8067, 34.18638234, -6.60629218
8068, 35.09622157, -8.36220440
8069, 35.57315789, -8.54042238
8070, 32.80768220, 2.74692297
8071, 33.99675586, 3.26956716
8072, 33.38517961, 3.00388280
8073, 38.88757666, -11.13698562
8074, 39.49167386, -10.62557045
8075, 38.97849555, -10.01435389
8076, 38.92788147, -10.59646509
8077, 42.66137458, 11.80480896
8078, 42.06732643, 11.18489768
8079, 42.03314327, 11.82507928
8080, 34.38825647, -8.66551067
8081, 34.16221607, -9.18772960
8082, 32.94697431, -6.63187031
8083, 32.23401397, -6.89881928
8084, 32.46037162, -7.71594080
8085, 32.70444781, -7.17214049
8086, 40.42457459, 10.63955380
8087, 39.85693281, 11.17788968
8088, 39.33737770, 10.55689801
8089, 39.94335708, 10.01233322
8090, 39.88984895, 10.59804537
8091, 37.02124877, -10.76813239
8092, 36.79846465, -11.26731960
8093, 44.80279268, -2.94483608
8094, 43.91593329, -3.86397144
8095, 44.78208299, -3.86870890
8096, 38.76038348, 9.91800521
8097, 38.15618449, 9.17148281
8098, 38.85027795, 8.58052372
8099, 39.42457468, 9.31289552
8100, 38.79345068, 9.25230360
8101, 38.77396026, 10.53732865
8102, 38.81249829, -11.66487364
8103, 41.36396727, -1.36944981
8104, 41.44059643, -3.02103864
8105, 42.22722466, -2.14312185
8106, 41.41684225, -2.19251772
8107, 29.92799601, 2.64373670
8108, 31.07824859, 3.30303352
8109, 30.17845276, 3.58164517
8110, 30.49916940, 2.97809800
8111, 39.82704393, 11.75525717
8112, 45.79015722, 11.61040707
8113, 46.63952631, 11.56983023
8114, 36.66028528, 2.35648788
8115, 36.16399918, 1.43843696
8116, 36.96529525, 0.89696877
8117, 36.84410001, 1.63379398
8118, 36.95477057, 8.86308788
8119, 35.85857767, 8.52659939
8120, 36.53755480, 8.11671407
8121, 36.39875493, 8.69477902
8122, 38.44072999, -9.28213173
8123, 39.26910407, -8.77565896
8124, 39.09774263, -9.39909009
8125, 34.50789155, 9.32914407
8126, 34.14810996, 8.61440581
8127, 34.01027163, 9.16377185
8128, 40.54815308, -10.70715245
8129, 40.03151716, -10.67314682
8130, 43.92884725, -2.04977506
8131, 44.80756988, -2.01265842
8132, 34.88830061, -7.65136085
8133, 34.62748200, -8.15217610
8134, 36.10463659, 3.66024552
8135, 36.46596946, 4.64598423
8136, 35.51127353, 4.97977065
8137, 35.21589631, 3.95725665
8138, 35.82496052, 4.32074283
8139, 35.17586296, 8.92865093
8140, 35.02067485, 9.49459787
8141, 32.25836718, 6.98216542
8142, 31.49324192, 7.24975183
8143, 31.17839245, 6.42455646
8144, 31.99271137, 6.09257362
8145, 31.73262399, 6.68605103
8146, 27.66937579, 6.57961685
8147, 26.32404229, 5.37995042
8148, 27.45983963, 5.31273950
8149, 26.95692643, 6.02662309
8150, 29.67361745, 1.73716218
8151, 29.37753731, 2.31709965
8152, 23.38983142, 4.17855506
8153, 24.08423557, 3.88953448
8154, 23.87944544, 4.44777908
8155, 24.10774416, -3.92153931
8156, 23.41156821, -4.19124735
8157, 23.89063489, -4.46269611
8158, 38.77227864, -8.01210011
8159, 38.23375073, -7.25984160
8160, 37.46889412, -7.77937174
8161, 37.96770191, -8.51018939
8162, 38.11173853, -7.88993356
8163, 41.96386825, 9.95109563
8164, 42.65308256, 10.46498685
8165, 41.48022304, 10.62520634
8166, 42.04326644, 10.55816850
8167, 45.59441562, -8.02263832
8168, 46.59914214, -8.79068285
8169, 46.53628847, -7.82770135
8170, 45.78756227, -9.84964133
8171, 46.63644195, -9.72808655
8172, 30.91840067, -3.02621252
8173, 30.49120470, -2.64915852
8174, 19.65845200, 2.67742049
8175, 18.19290874, 2.22718754
8176, 18.95326886, 2.45340466
8177, 40.13630404, 8.73282953
8178, 40.03589987, 9.40045691
8179, 36.14316124, 7.38650755
8180, 35.47626594, 7.77965165
8181, 35.63485028, 7.21288354
8182, 34.79299073, 8.18630712
8183, 35.32571071, 8.35507725
8184, 36.08745228, -5.41632591
8185, 35.25711828, -5.75109273
8186, 35.52579673, -6.61457198
8187, 36.41804403, -6.26502297
8188, 35.82242070, -6.02113969
8189, 23.57423952, -2.41538662
8190, 24.20921213, -2.22091267
8191, 24.02160674, -1.47192986
8192, 23.79828421, -1.95559681
8193, 23.24491562, 1.54794020
8194, 23.93282418, 1.36062622
8195, 24.12703678, 2.13184846
8196, 23.46265544, 2.33377408
8197, 23.69247545, 1.84444988
8198, 36.77600642, 6.96101725
8199, 36.66124550, 7.53849628
8200, 22.30490186, 0.92508557
8201, 22.78962321, 1.22882259
8202, 32.71236749, -5.82191221
8203, 33.19183290, -6.08502834
8204, 42.24884303, -3.85386435
8205, 40.65728602, -3.82376145
8206, 41.44440145, -3.84157217
8207, 28.83634080, 6.34573077
8208, 29.13522598, 7.63563652
8209, 28.41867519, 7.10844814
8210, 44.15217110, 11.71807296
8211, 44.88812780, 10.82383706
8212, 44.95821944, 11.66282139
8213, 26.28291002, 0.41466303
8214, 25.43062069, 0.91559997
8215, 25.62859318, 0.25810712
8216, 34.12403232, -1.96062120
8217, 33.45680716, -2.04463025
8218, 33.48762807, -2.83417350
8219, 33.83656221, -2.40622651
8220, 40.86690042, 8.04049461
8221, 39.50811070, 7.95626460
8222, 40.15957129, 7.26811756
8223, 40.17338701, 8.00775914
8224, 31.73276905, 8.06198876
8225, 31.25944577, 7.78734655
8226, 33.23957717, 0.95920786
8227, 33.12806139, 0.02138228
8228, 34.12625761, 0.99903293
8229, 33.67230056, 0.48508392
8230, 34.95553260, -4.91681632
8231, 34.71137302, -5.49037688
8232, 31.68120725, 5.17256012
8233, 32.84379317, 5.80483886
8234, 32.26866646, 5.48159654
8235, 34.59802810, 5.22481062
8236, 35.16098522, 5.58836912
8237, 35.57337096, 0.62462122
8238, 35.69613146, -0.87063523
8239, 36.38924057, 0.00330519
8240, 35.65236382, -0.11112829
8241, 39.00946105, -6.70322566
8242, 38.37740999, -5.94907166
8243, 37.67462145, -6.52924206
8244, 38.32569445, -6.61229819
8245, 40.11961923, -8.30895700
8246, 39.59875931, -7.49400616
8247, 39.44114398, -8.14684562
8248, 31.53011738, -7.14472221
8249, 32.02035607, -6.07859328
8250, 31.33296424, -6.29856701
8251, 31.77868309, -6.60609598
8252, 37.36690959, 9.65186153
8253, 37.53541829, 9.03023262
8254, 33.63963425, -3.63562208
8255, 34.62840554, -4.12105585
8256, 34.12312859, -3.89606746
8257, 32.86980726, -3.88751510
8258, 32.65990649, -2.94532805
8259, 33.15553174, -3.32860780
8260, 25.62104399, -2.12682906
8261, 24.75930733, -1.25282276
8262, 24.87143372, -2.10779291
8263, 25.21944841, -1.65581875
8264, 30.80521892, 5.52347247
8265, 30.46605078, 4.55146350
8266, 31.36894890, 4.23489345
8267, 31.07942157, 4.86949536
8268, 42.74569594, -10.40344269
8269, 43.46034125, -11.00458499
8270, 44.17319712, -10.12251684
8271, 43.32240536, -9.52276054
8272, 43.42696398, -10.26357811
8273, 21.07645808, 3.08760436
8274, 20.49502620, 2.21421805
8275, 20.36292627, 2.86797448
8276, 43.09701984, 4.37300485
8277, 43.04410269, 2.59928307
8278, 43.08245695, 3.49675776
8279, 29.94334315, -6.68947270
8280, 29.05542490, -5.98820294
8281, 29.50917074, -6.34191461
8282, 18.21137023, -2.17619319
8283, 17.45743913, -1.02670125
8284, 17.36533771, -2.05375691
8285, 31.74700916, -7.98675658
8286, 32.22073465, -8.25956115
8287, 43.03325088, -1.18681255
8288, 43.07968802, -2.98273680
8289, 43.06704590, -2.09193076
8290, 28.32603961, -6.26111308
8291, 28.07371515, -5.19748141
8292, 28.57595902, -5.61575134
8293, 45.00330228, -10.82418877
8294, 44.87479022, -9.13758505
8295, 44.96081092, -9.98314945
8296, 42.40787093, -9.02825979
8297, 43.92713104, -8.54919944
8298, 42.97966682, -7.98122104
8299, 43.14626028, -8.76775936
8300, 37.56045333, -9.72505636
8301, 37.79030332, -9.12836233
8302, 40.94739196, 10.65148874
8303, 18.45960068, 0.06985942
8304, 17.44926125, 1.07833294
8305, 17.48469768, 0.03050869
8306, 17.35810505, 2.08125466
8307, 43.07224639, -3.85685382
8308, 41.07084622, -7.84891104
8309, 42.08207924, -7.17306460
8310, 40.46329748, -6.93194733
8311, 41.24726541, -7.07029147
8312, 39.30610585, 5.00983376
8313, 40.76691645, 5.02278425
8314, 40.08089198, 5.77470635
8315, 40.03233593, 5.00750313
8316, 35.19605842, -7.15145581
8317, 37.76970074, -2.09748391
8318, 38.40307986, -2.92298363
8319, 38.45463988, -2.19349851
8320, 29.53050184, 4.87197667
8321, 29.85786356, 4.20995568
8322, 42.94820032, 0.70701109
8323, 42.98463174, 1.67007424
8324, 29.90113607, 5.94919575
8325, 28.53096203, 5.14002681
8326, 29.20354298, 5.58613837
8327, 21.90733962, 0.12865048
8328, 21.78062541, 0.70492910
8329, 25.54096034, -3.01864884
8330, 26.29502647, -3.18585257
8331, 25.96397336, -2.65160643
8332, 24.85692952, 2.76769460
8333, 24.32312978, 2.84353047
8334, 24.80883318, 1.99125907
8335, 24.52755296, 2.42584595
8336, 42.08371436, -0.37930299
8337, 42.97934706, -0.25588119
8338, 44.00125726, 10.19078018
8339, 44.74973361, 9.98518595
8340, 43.37063055, 11.04640247
8341, 43.37525456, 11.76762244
8342, 23.71597661, -0.71205645
8343, 24.25361656, -0.94006827
8344, 29.32343929, 0.81468987
8345, 30.34870053, 0.51472827
8346, 29.97894193, 1.12373206
8347, 42.91900265, -7.16775944
8348, 39.43809442, 6.52465610
8349, 38.85559582, 7.24456430
8350, 38.65456188, 5.81086215
8351, 38.76780219, 6.55406391
8352, 26.42088182, 3.01458542
8353, 25.57003883, 2.88554090
8354, 25.60888092, 1.92155047
8355, 26.02800225, 2.45045365
8356, 36.63193311, -4.15001946
8357, 37.57336130, -3.59369328
8358, 36.95770325, -2.66694270
8359, 36.11994173, -3.22937657
8360, 36.82409431, -3.41903481
8361, 27.35256073, 4.12916390
8362, 26.36681936, 4.09907673
8363, 27.30619413, 3.05983794
8364, 26.85998560, 3.57700151
8365, 18.98586468, -2.39292850
8366, 22.36578518, 3.65851610
8367, 21.75585732, 3.36599344
8368, 24.37321173, -2.91205620
8369, 24.88458422, -2.86121508
8370, 24.58317788, -2.51671146
8371, 43.91283448, 5.34629107
8372, 44.70750425, 6.38806999
8373, 44.77321209, 5.46828886
8374, 39.87163746, -4.57112471
8375, 39.11985519, -3.75044048
8376, 39.88486689, -3.79138326
8377, 44.20257319, -11.70686442
8378, 45.01013680, -11.66268164
8379, 41.37908248, -8.86980729
8380, 42.02298101, -9.93378930
8381, 41.78939986, -9.36363799
8382, 36.92082515, -7.06809084
8383, 37.04144360, -6.42722433
8384, 24.64490210, 1.16218490
8385, 25.13306670, 1.49712566
8386, 34.31711101, 4.24605060
8387, 34.91911557, 2.96638130
8388, 34.61054270, 3.59958046
8389, 42.28745008, 5.13224915
8390, 41.52405443, 5.84510577
8391, 41.51728210, 5.06423169
8392, 43.03688784, 6.06049098
8393, 43.08396479, 5.22874823
8394, 27.92700706, -4.17001012
8395, 28.64442616, -3.13118632
8396, 27.84035669, -3.19452263
8397, 28.28156145, -3.63991418
8398, 33.71746723, 5.51484114
8399, 34.01758625, 4.88315037
8400, 32.84655901, -0.98300226
8401, 32.52720786, -0.35991694
8402, 24.67148895, 3.40751664
8403, 23.73274417, 3.10466946
8404, 24.20562127, 3.32658199
8405, 24.68756119, -3.46919041
8406, 23.79644763, -3.15407336
8407, 24.24366642, -3.37844139
8408, 43.72247521, 7.07989388
8409, 44.58085445, 7.31408982
8410, 22.53242213, -0.50988537
8411, 23.14163282, -0.58036530
8412, 27.91487284, 4.65263853
8413, 30.57307203, 6.20145675
8414, 31.96041551, 3.02769107
8415, 31.66519851, 3.62192493
8416, 27.80965223, 0.52307872
8417, 28.59492803, 0.62268599
8418, 28.61539788, -2.16382441
8419, 29.03719118, -2.65887841
8420, 42.70188358, -11.78812101
8421, 42.13512784, -11.16565723
8422, 42.07068115, -11.81523414
8423, 32.55017788, 1.92917935
8424, 32.25346854, 2.46238313
8425, 41.51730630, 7.31727245
8426, 41.64793668, 8.70393514
8427, 41.54708066, 8.02010909
8428, 39.80141712, -6.08733681
8429, 39.09722837, -5.27943609
8430, 39.84717661, -5.33792130
8431, 32.87100926, 1.43492661
8432, 20.55435131, 1.58085517
8433, 27.72994565, 2.54568319
8434, 38.52822112, 4.24802071
8435, 38.44092413, 3.48174106
8436, 32.44997764, 7.82191558
8437, 33.08911460, 6.76714825
8438, 32.75148674, 7.31516220
8439, 32.46781014, -5.02461292
8440, 32.65982831, -4.47003406
8441, 35.75687106, -4.55342500
8442, 36.36441358, -4.80983966
8443, 34.78325315, 2.03170810
8444, 34.96582523, 1.31519151
8445, 34.46067107, 1.54490748
8446, 37.85751346, 5.00170785
8447, 38.58236303, 5.02611836
8448, 37.01754217, 5.64243415
8449, 37.14711828, 4.87868670
8450, 33.41281343, 6.15329694
8451, 19.33681859, 0.12724838
8452, 22.89497761, -2.58383382
8453, 23.12951230, -3.39505268
8454, 23.34832692, -2.88894431
8455, 43.42088244, -11.75027877
8456, 23.06192744, 3.37306579
8457, 23.25221891, 2.84159646
8458, 38.33240103, -4.48993879
8459, 38.35032227, -3.69649437
8460, 36.89116870, 6.34757166
8461, 31.81954888, -5.27959589
8462, 32.25444134, -5.55296742
8463, 34.25549649, 8.03556214
8464, 30.82371380, -7.37567126
8465, 31.28164779, -7.69146066
8466, 26.24048585, -4.19240013
8467, 25.38373808, -3.94330483
8468, 26.23043130, -5.41394784
8469, 25.75221010, -4.67297928
8470, 25.42122756, 3.86970658
8471, 25.81940595, 4.61797584
8472, 35.45127604, 1.87970258
8473, 35.78611761, 2.70996658
8474, 35.22883801, 2.40260605
8475, 31.74480616, -2.99926379
8476, 31.32994885, -3.44702558
8477, 32.19432120, 8.33203817
8478, 30.09980980, -7.59366624
8479, 29.78197738, -8.17503380
8480, 29.74954832, 8.13459076
8481, 41.56594780, -10.64321092
8482, 41.04925764, -10.70212690
8483, 27.74853971, -2.25208456
8484, 27.54089168, -1.29459923
8485, 28.11833318, -1.68732017
8486, 36.39224898, 3.02539291
8487, 42.22079331, 6.68825039
8488, 40.82033843, 6.55074932
8489, 41.51939139, 6.59834446
8490, 22.89894457, 3.92508716
8491, 22.41184905, -3.65591999
8492, 22.93292205, -3.93291370
8493, 27.02473291, -0.33128147
8494, 26.90942213, -1.06878042
8495, 27.05710347, -3.24583419
8496, 27.10186350, -4.23771287
8497, 26.67323185, -3.71623414
8498, 27.02034938, 0.47683500
8499, 27.40986244, -2.76791284
8500, 22.08947219, -2.73884350
8501, 21.81410049, -3.34787810
8502, 35.34581520, -3.72750080
8503, 35.53135538, -2.38393111
8504, 35.45383211, -3.08525645
8505, 41.26519038, -0.56026784
8506, 35.17270720, -4.33087965
8507, 44.72504489, -8.29161197
8508, 38.36499317, -5.24784828
8509, 20.73686252, -1.43412643
8510, 27.47893415, -6.56063068
8511, 27.21383766, -5.35229826
8512, 26.82504649, -6.04044237
8513, 37.09036993, 0.18197239
8514, 32.62918892, -1.97429608
8515, 32.17163061, -2.48491888
8516, 30.64009515, -6.49708162
8517, 31.15702536, -5.46653217
8518, 30.89932951, -5.97217726
8519, 30.34678332, -0.50857844
8520, 30.02623875, -1.09713012
8521, 24.17469416, 0.86108508
8522, 36.37823209, -1.75635216
8523, 37.09074804, -1.93652069
8524, 42.94199756, 6.85531332
8525, 38.87632114, 7.91323850
8526, 27.57766794, -4.73786573
8527, 28.13344633, -7.01102488
8528, 40.12492355, 6.52840556
8529, 21.93409516, -0.47807522
8530, 34.91367952, -1.53651687
8531, 33.69719904, -1.37841546
8532, 34.27480474, -1.40953733
8533, 43.19037508, 9.66454476
8534, 42.41626674, 9.18197911
8535, 43.03373721, 8.99711456
8536, 22.44098172, -2.21137031
8537, 30.37775186, -7.03842721
8538, 37.28263754, -10.26687905
8539, 37.14363088, 10.21737074
8540, 36.84263105, -7.69187407
8541, 41.81421752, 9.34229520
8542, 42.12132895, -10.53660022
8543, 39.71885065, -6.80551450
8544, 30.79460636, -0.01487980
8545, 35.63227584, -1.63677580
8546, 33.14798201, -1.58019743
8547, 43.30434597, 10.34364590
8548, 31.41323459, -4.98610956
8549, 40.78378179, -8.52870511
8550, 35.53489483, 1.30262127
8551, 25.12770248, 3.24137638
8552, 25.12222475, -3.33034668
8553, 28.75044616, -7.84614068
8554, 28.91482166, -7.32020804
8555, 29.22761376, -7.54970516
8556, 29.06323826, -8.07563780
8557, 28.98902996, -7.69792292
8558, 29.51129687, -7.49150555
8559, 29.19278813, -7.12167843
8560, 29.47647125, -7.06347881
8561, 29.35204250, -7.30659199
8562, 29.05695624, -6.74681371
8563, 28.77898977, -6.94534332
8564, 28.98588895, -7.03351087
8565, 28.34058772, -0.30626433
8566, 28.83017069, -0.42427845
8567, 28.71791105, -0.90382771
8568, 28.22832809, -0.78581359
8569, 28.52924939, -0.60504602
8570, 28.84729871, -1.36070329
8571, 29.15046690, -0.77721752
8572, 29.27985456, -1.23409310
8573, 28.99888281, -1.06896041
8574, 29.51951434, -0.44000646
8575, 29.19921812, -0.08706740
8576, 29.17484251, -0.43214246
8577, 33.88231734, -0.30795173
8578, 34.30739280, -0.15452694
8579, 34.42141316, -0.55681206
8580, 33.99633771, -0.71023685
8581, 34.15186525, -0.43238190
8582, 34.67788543, -0.82366678
8583, 34.71736579, -0.26423569
8584, 34.97383806, -0.53109042
8585, 34.69762561, -0.54395124
8586, 34.85695248, 0.17440995
8587, 34.44697949, 0.28411870
8588, 34.58217264, 0.00994150
8589, 37.21240452, 3.05963586
8590, 37.14756847, 3.52927623
8591, 37.55120437, 3.62052281
8592, 37.61604042, 3.15088244
8593, 37.38180445, 3.34007933
8594, 37.81447750, 3.90299957
8595, 37.29527795, 3.92830768
8596, 37.55855108, 4.21078445
8597, 37.55487773, 3.91565363
8598, 36.97354714, 4.06880917
8599, 36.82583767, 3.66977772
8600, 37.06055781, 3.79904270
8601, 36.78322718, -5.38799216
8602, 37.09690188, -5.25571175
8603, 37.22420995, -5.61187396
8604, 36.91053525, -5.74415437
8605, 37.00371857, -5.49993306
8606, 37.45986699, -5.86865513
8607, 37.48748612, -5.34198704
8608, 37.72314316, -5.59876821
8609, 37.47367656, -5.60532108
8610, 37.56983789, -4.90431595
8611, 37.17925365, -4.81804066
8612, 37.33336989, -5.08001385
8613, 19.89612131, 1.76546019
8614, 19.72485703, 1.43247611
8615, 19.36117057, 1.58866363
8616, 19.53243485, 1.92164770
8617, 19.62864594, 1.67706191
8618, 18.87805813, 1.50069175
8619, 19.42954381, 1.14413534
8620, 18.94643137, 1.05616346
8621, 19.15380097, 1.32241354
8622, 19.68463555, 0.89429388
8623, 19.97994878, 1.18263466
8624, 19.70474629, 1.16338500
8625, 30.67551319, 7.76530367
8626, 30.61513426, 7.41926770
8627, 30.27827876, 7.45861288
8628, 30.33865770, 7.80464886
8629, 30.47689598, 7.61195828
8630, 29.89942256, 7.23774161
8631, 30.43737220, 7.08730983
8632, 30.05851600, 6.86643855
8633, 30.16839738, 7.16252572
8634, 30.71174096, 6.93261093
8635, 30.88950302, 7.26456880
8636, 30.66343761, 7.17593931
8637, 44.85294052, 8.42181163
8638, 44.29728132, 8.45278985
8639, 44.35274881, 8.97631444
8640, 44.90840801, 8.94533621
8641, 44.60284466, 8.69906303
8642, 44.17442159, 9.35414328
8643, 43.94160394, 8.77533365
8644, 43.76327672, 9.15316250
8645, 44.05801277, 9.06473847
8646, 43.58397545, 8.40590215
8647, 43.93965284, 8.08335836
8648, 43.94062839, 8.42934600
8649, 21.61164019, -1.00903270
8650, 21.79999362, -1.25652453
8651, 21.53470971, -1.48386197
8652, 21.34635628, -1.23637014
8653, 21.57317495, -1.24644733
8654, 21.38164498, -1.87609887
8655, 21.87961167, -1.62470692
8656, 21.72654694, -2.01694382
8657, 21.63062832, -1.75040289
8658, 22.23920530, -1.52163254
8659, 22.15958725, -1.15345015
8660, 22.01959946, -1.38907853
8661, 19.00697674, -0.88133584
8662, 19.52883885, -0.93604525
8663, 19.45173641, -1.43065155
8664, 18.92987430, -1.37594214
8665, 19.22935657, -1.15599370
8666, 19.61413768, -1.79717266
8667, 19.85626787, -1.24532288
8668, 20.01866914, -1.61184399
8669, 19.73520277, -1.52124777
8670, 20.18852608, -0.91382607
8671, 19.86109706, -0.60454844
8672, 19.85868246, -0.92493566
8673, 41.47435507, 0.40128963
8674, 40.97737400, 0.37748318
8675, 40.97754084, 0.83077061
8676, 41.47452192, 0.85457705
8677, 41.22594796, 0.61603012
8678, 40.75612582, 1.12833099
8679, 40.63072588, 0.58840907
8680, 40.40931086, 0.88596946
8681, 40.69342585, 0.85837003
8682, 40.41252366, 0.27137995
8683, 40.75917177, 0.06045407
8684, 40.69494883, 0.32443157
8685, 44.91094868, -7.23563631
8686, 44.36356555, -7.29148829
8687, 44.34778267, -6.78779442
8688, 44.89516580, -6.73194245
8689, 44.62936568, -7.01171537
8690, 44.09123674, -6.45968823
8691, 43.96146433, -7.08018403
8692, 43.70491840, -6.75207783
8693, 44.02635053, -6.76993613
8694, 43.72860709, -7.45682990
8695, 44.13070831, -7.66813416
8696, 44.04608632, -7.37415909
8697, 27.07178495, 2.32213283
8698, 27.09174989, 1.93468436
8699, 26.70640528, 1.90764089
8700, 26.68644034, 2.29508937
8701, 26.88909511, 2.11488686
8702, 26.32413665, 1.66725354
8703, 26.92862402, 1.51916919
8704, 26.54635540, 1.27878184
8705, 26.62638034, 1.59321137
8706, 27.33919005, 1.35228559
8707, 27.50231591, 1.76780076
8708, 27.21546997, 1.64348497
8709, 28.71169410, 2.26207272
8710, 28.67432060, 1.91447866
8711, 28.31585976, 1.94857103
8712, 28.35323326, 2.29616509
8713, 28.51377693, 2.10532187
8714, 27.93784848, 1.76740019
8715, 28.48846407, 1.57614847
8716, 28.11045279, 1.39497763
8717, 28.21315628, 1.67177433
8718, 28.79250353, 1.40476002
8719, 28.97836006, 1.74309022
8720, 28.73341207, 1.65961934
8721, 37.56081585, -1.36473297
8722, 37.36173294, -1.07598498
8723, 37.67394909, -0.86706099
8724, 37.87303200, -1.15580898
8725, 37.61738247, -1.11589698
8726, 37.86748804, -0.57718191
8727, 37.36005393, -0.66427754
8728, 37.55359288, -0.37439846
8729, 37.61377098, -0.62072973
8730, 36.92555020, -0.66628985
8731, 36.92722920, -1.07799729
8732, 37.14364157, -0.87113742
8733, 21.53772128, 2.10283447
8734, 21.64747152, 1.73548713
8735, 21.31819307, 1.60935571
8736, 21.20844282, 1.97670305
8737, 21.42795717, 1.85609509
8738, 21.13793815, 1.35718023
8739, 21.56635333, 1.40568628
8740, 21.38609841, 1.15351080
8741, 21.35214574, 1.38143325
8742, 21.84566699, 1.32966220
8743, 21.92678518, 1.65946305
8744, 21.74656925, 1.53257467
8745, 25.44325757, -0.50483221
8746, 25.81852381, -0.61495859
8747, 25.73459066, -1.01417067
8748, 25.35932442, -0.90404429
8749, 25.58892411, -0.75950144
8750, 25.86063953, -1.41846193
8751, 26.08850174, -0.89315480
8752, 26.21455062, -1.29744606
8753, 25.97457064, -1.15580836
8754, 26.32127199, -0.62139279
8755, 26.05129406, -0.34319658
8756, 26.06989790, -0.61817569
8757, 36.28977551, 6.54297365
8758, 36.11923162, 6.27187872
8759, 35.85993808, 6.48303188
8760, 36.03048197, 6.75412680
8761, 36.07485680, 6.51300276
8762, 35.56849097, 6.56844929
8763, 35.78374832, 6.12892429
8764, 35.49230120, 6.21434170
8765, 35.67611964, 6.34868679
8766, 35.91810972, 5.73004884
8767, 36.25359303, 5.87300328
8768, 36.01867067, 6.00096378
8769, 29.49642985, -1.64416536
8770, 29.80443730, -1.87583732
8771, 29.61052086, -2.17626637
8772, 29.30251342, -1.94459441
8773, 29.55347536, -1.91021587
8774, 29.61035383, -2.48839149
8775, 29.92665431, -2.19573091
8776, 29.92648728, -2.50785603
8777, 29.76850407, -2.34206120
8778, 30.20588040, -2.09352731
8779, 30.08366339, -1.77363372
8780, 30.00515885, -1.98468232
8781, 26.44833963, -1.67551241
8782, 26.73815603, -1.91190444
8783, 26.54607825, -2.22028335
8784, 26.25626185, -1.98389133
8785, 26.49720894, -1.94789788
8786, 26.53250067, -2.55272577
8787, 26.85607031, -2.25584233
8788, 26.84249272, -2.58828475
8789, 26.69428549, -2.40428405
8790, 27.13593568, -2.14276749
8791, 27.01802140, -1.79882959
8792, 26.93704585, -2.02733596
8793, 38.22748117, 6.95065186
8794, 37.98645100, 6.72153556
8795, 37.78743123, 7.00451938
8796, 38.02846140, 7.23363568
8797, 38.00745620, 6.97758562
8798, 37.53223081, 7.16266688
8799, 37.62385130, 6.67667271
8800, 37.36865087, 6.83482021
8801, 37.57804105, 6.91966980
8802, 37.63966791, 6.24214540
8803, 38.00226762, 6.28700824
8804, 37.81305946, 6.48184048
8805, 31.05009861, -0.65624540
8806, 31.37572102, -0.60000081
8807, 31.45972461, -0.94965191
8808, 31.13410220, -1.00589650
8809, 31.25491161, -0.80294866
8810, 31.74431899, -1.25129187
8811, 31.73411909, -0.69203271
8812, 32.01871347, -0.99367267
8813, 31.73921904, -0.97166229
8814, 31.80291484, -0.37121653
8815, 31.44451677, -0.27918463
8816, 31.58931793, -0.48560867
8817, 43.13502914, 7.76777167
8818, 42.69500961, 7.75846131
8819, 42.71651041, 8.17771442
8820, 43.15652993, 8.18702478
8821, 42.92576977, 7.97274304
8822, 42.54367162, 8.47710736
8823, 42.38584827, 7.97946152
8824, 42.21300949, 8.27885446
8825, 42.46475995, 8.22828444
8826, 42.16498099, 7.67992724
8827, 42.47414233, 7.45892703
8828, 42.42999530, 7.71919427
8829, 34.79603326, -2.67053169
8830, 34.66644023, -3.03154344
8831, 34.34907024, -2.89609989
8832, 34.47866327, -2.53508814
8833, 34.57255175, -2.78331579
8834, 34.06664225, -2.95257210
8835, 34.39996502, -3.22223221
8836, 34.11753703, -3.27870443
8837, 34.23330363, -3.08740216
8838, 34.56086227, -3.48790318
8839, 34.82733748, -3.29721441
8840, 34.61365125, -3.25972331
8841, 37.62386474, -10.71521228
8842, 37.89204256, -10.60479999
8843, 37.98179574, -10.88143436
8844, 37.71361793, -10.99184665
8845, 37.80283024, -10.79832332
8846, 38.15930075, -11.07991188
8847, 38.21278515, -10.66816937
8848, 38.39029016, -10.86664689
8849, 38.18604295, -10.87404062
8850, 38.31241347, -10.32280062
8851, 37.99167088, -10.25943125
8852, 38.10222801, -10.46380031
8853, 23.60118718, 0.83909429
8854, 23.52663371, 0.52914095
8855, 23.21184534, 0.60830091
8856, 23.28639881, 0.91825425
8857, 23.40651626, 0.72369760
8858, 22.84489762, 0.51385179
8859, 23.29822966, 0.24466228
8860, 22.93128193, 0.15021317
8861, 23.07156364, 0.37925704
8862, 23.58375176, 0.00453605
8863, 23.81215582, 0.28901472
8864, 23.55519274, 0.26683850
8865, 31.84341751, -4.66750463
8866, 31.74800989, -4.38496158
8867, 32.00979242, -4.25438787
8868, 32.10520004, -4.53693092
8869, 31.92660496, -4.46094625
8870, 32.20154881, -3.93644540
8871, 31.75229400, -4.05443673
8872, 31.94405040, -3.73649426
8873, 31.97692141, -3.99544107
8874, 31.48925845, -4.05868426
8875, 31.48497433, -4.38920911
8876, 31.61863417, -4.22182292
8877, 35.48207301, -7.67338515
8878, 35.76188429, -7.58862413
8879, 35.82338336, -7.89274775
8880, 35.54357208, -7.97750877
8881, 35.65272818, -7.78306645
8882, 35.98591359, -8.12413619
8883, 36.08128694, -7.69319625
8884, 36.24381718, -7.92458469
8885, 36.03360027, -7.90866622
8886, 36.21304454, -7.33891853
8887, 35.89364188, -7.23434641
8888, 35.98746441, -7.46377133
8889, 38.27101145, 10.83223017
8890, 38.07919869, 10.62788450
8891, 37.87385605, 10.85164791
8892, 38.06566882, 11.05599358
8893, 38.07243375, 10.84193904
8894, 37.62296875, 10.96821930
8895, 37.76198087, 10.56541584
8896, 37.51109357, 10.68198723
8897, 37.69247481, 10.76681757
8898, 37.82609873, 10.20353169
8899, 38.14331655, 10.26600035
8900, 37.95264871, 10.41570809
8901, 33.06633380, 8.21630883
8902, 33.32913445, 8.15050693
8903, 33.28039911, 7.82450713
8904, 33.01759845, 7.89030902
8905, 33.17336645, 8.02040798
8906, 33.42010002, 7.46486081
8907, 33.57127404, 7.96422533
8908, 33.71097494, 7.60457900
8909, 33.49568703, 7.71454307
8910, 33.71148452, 8.21879304
8911, 33.46934493, 8.40507465
8912, 33.52030948, 8.18464999
8913, 41.35221656, 9.79681645
8914, 41.10693894, 9.62336753
8915, 40.94208991, 9.91541543
8916, 41.18736753, 10.08886434
8917, 41.14715323, 9.85611594
8918, 40.70888031, 10.10032770
8919, 40.76217664, 9.63236480
8920, 40.52896704, 9.81727708
8921, 40.73552847, 9.86634625
8922, 40.74634253, 9.22783493
8923, 41.09110482, 9.21883766
8924, 40.92664073, 9.42560123
8925, 40.68646560, -9.99204983
8926, 40.90033645, -9.83044591
8927, 41.05693139, -10.05359818
8928, 40.84306054, -10.21520210
8929, 40.87169850, -10.02282400
8930, 41.28772687, -10.16748574
8931, 41.19344885, -9.78457523
8932, 41.42424434, -9.89846279
8933, 41.24058786, -9.97603048
8934, 41.16775003, -9.51276004
8935, 40.87463763, -9.55863071
8936, 41.03404324, -9.67160297
8937, 20.56444115, -0.34279679
8938, 20.94362377, -0.31993169
8939, 20.95062401, -0.67202300
8940, 20.57144139, -0.69488810
8941, 20.75753258, -0.50740990
8942, 21.11866413, -0.91033010
8943, 21.21712147, -0.48358543
8944, 21.38516159, -0.72189252
8945, 21.16789280, -0.69695776
8946, 21.38220915, -0.22681808
8947, 21.10871145, -0.06316434
8948, 21.16291646, -0.27337489
8949, 22.76906225, -1.21156099
8950, 23.07961057, -1.36110667
8951, 22.94350194, -1.67552509
8952, 22.63295362, -1.52597942
8953, 22.85628209, -1.44354304
8954, 22.98560027, -1.96547484
8955, 23.23667715, -1.63749551
8956, 23.27877548, -1.92744526
8957, 23.11113871, -1.80148518
8958, 23.47577575, -1.48855501
8959, 23.31870917, -1.21216618
8960, 23.27769316, -1.42483084
8961, 24.97218783, 0.36588428
8962, 24.85314298, 0.05289355
8963, 24.53904131, 0.19213182
8964, 24.65808616, 0.50512256
8965, 24.75561457, 0.27900805
8966, 24.17082090, 0.17241542
8967, 24.56904455, -0.18489568
8968, 24.20082414, -0.20461208
8969, 24.36993273, -0.00624013
8970, 24.80656095, -0.50439476
8971, 25.09065938, -0.26660554
8972, 24.82985196, -0.22575061
8973, 33.50028202, 1.57098105
8974, 33.48562950, 1.89038448
8975, 33.82225991, 1.92753354
8976, 33.83691244, 1.60813012
8977, 33.66127097, 1.74925730
8978, 34.13182188, 2.17215230
8979, 33.61126594, 2.21789476
8980, 33.92082791, 2.46251352
8981, 33.87154391, 2.19502353
8982, 33.31755287, 2.31747199
8983, 33.19191643, 1.98996171
8984, 33.40159118, 2.10392824
8985, 24.20951027, -5.00518892
8986, 24.59852551, -5.01161579
8987, 24.81136088, -5.46848084
8988, 24.51043557, -5.23683488
8989, 25.01020319, -5.13060575
8990, 25.41349962, -5.65814725
8991, 25.11243025, -5.56331405
8992, 24.98529121, -4.63935771
8993, 24.57361352, -4.52036775
8994, 24.79190836, -4.82548675
8995, 25.42442495, 5.64595927
8996, 25.02337637, 5.11236633
8997, 24.81360872, 5.46242940
8998, 25.11901684, 5.55419433
8999, 24.59981434, 4.99887350
9000, 24.20855126, 4.99849807
9001, 24.51107999, 5.23046374
9002, 24.57419591, 4.49439626
9003, 24.99775793, 4.60788909
9004, 24.79878614, 4.80338129
9005, 47.04938035, 2.85445004
9006, 46.59805920, 3.30021627
9007, 47.04867886, 3.81115084
9008, 47.04902960, 3.33280044
9009, 46.59428029, 4.25251469
9010, 47.04560143, 4.76828692
9011, 47.04714015, 4.28971888
9012, 46.14075695, 4.68684027
9013, 46.14851591, 3.74029088
9014, 45.69499257, 4.17461647
9015, 46.14463643, 4.21356558
9016, 45.69991176, 3.23371026
9017, 46.14945506, 2.79363565
9018, 46.14898548, 3.26696326
9019, 45.43707323, -6.36970906
9020, 46.02775109, -5.80601773
9021, 46.50309058, -6.32000900
9022, 45.91241272, -6.88370032
9023, 45.97008191, -6.34485903
9024, 46.99666848, -6.77864470
9025, 47.00642210, -5.79136430
9026, 47.00154529, -6.28500450
9027, 46.53453898, -5.32077631
9028, 47.02811688, -4.81787355
9029, 47.01726949, -5.30461892
9030, 46.09331366, -4.82654780
9031, 45.58652578, -5.31178922
9032, 46.06053238, -5.31628277
9033, 46.58385256, 5.20572671
9034, 47.03825113, 5.72590133
9035, 47.04192628, 5.24709413
9036, 46.56289267, 6.16526145
9037, 47.02464154, 6.68936013
9038, 47.03144633, 6.20763073
9039, 46.08157894, 6.59310089
9040, 46.12064074, 5.63363854
9041, 45.63932702, 6.06147797
9042, 46.10110984, 6.11336971
9043, 45.67754513, 5.11475210
9044, 46.13069885, 5.16023940
9045, 32.45995849, 0.38611836
9046, 32.01252439, 0.47429470
9047, 32.10091438, 0.91266943
9048, 32.54834848, 0.82449309
9049, 32.28043644, 0.64939390
9050, 32.19471490, 1.34623378
9051, 31.65977167, 1.00567282
9052, 31.75357219, 1.43923717
9053, 31.92724328, 1.17595330
9054, 31.20582318, 1.09299634
9055, 31.57093500, 0.56302071
9056, 31.11698651, 0.65034423
9057, 31.38837909, 0.82800852
9058, 31.48563353, 0.13705582
9059, 31.92722291, 0.04832982
9060, 31.74907896, 0.30567526
9061, 31.31382758, 1.54623807
9062, 31.42256226, 1.98489153
9063, 31.86230688, 1.87789063
9064, 31.58806723, 1.71206435
9065, 31.54394157, 2.43073502
9066, 30.98070927, 2.10518643
9067, 31.10208857, 2.55102992
9068, 31.26232542, 2.26796072
9069, 30.53169283, 2.22301897
9070, 30.85989972, 1.64876290
9071, 30.41088328, 1.76659544
9072, 30.69579627, 1.93589094
9073, 30.75189531, 1.19552118
9074, 31.03286145, 1.37087962
9075, 19.58612154, -2.96822287
9076, 20.06192010, -2.71804696
9077, 20.30501838, -3.16684667
9078, 19.94556996, -3.06753477
9079, 20.77971432, -2.93445761
9080, 21.02491643, -3.38191846
9081, 20.66496740, -3.27438257
9082, 21.28720706, -2.64909053
9083, 20.51640131, -2.46554085
9084, 21.02389405, -2.18017377
9085, 20.90180419, -2.55731569
9086, 20.27152567, -2.02302096
9087, 19.81704446, -2.27552706
9088, 20.16672289, -2.37053396
9089, 30.66197379, -9.13495687
9090, 31.02233022, -8.97306058
9091, 31.14292869, -9.39709263
9092, 30.90245124, -9.26602475
9093, 31.38260295, -8.82796021
9094, 30.90589009, -8.54549993
9095, 31.26616282, -8.40039957
9096, 31.14424652, -8.68673007
9097, 30.79402519, -8.09812108
9098, 30.53530077, -8.68318389
9099, 30.42343587, -8.23580504
9100, 30.66466298, -8.39065249
9101, 30.17418404, -8.85800345
9102, 30.41807892, -8.99648016
9103, 37.90592834, 2.71756445
9104, 38.34073220, 2.29579429
9105, 37.95264344, 1.85398239
9106, 37.51783958, 2.27575255
9107, 37.92928589, 2.28577342
9108, 37.61722543, 1.42652663
9109, 38.34730185, 1.52351125
9110, 38.01188385, 1.09605549
9111, 37.98226364, 1.47501894
9112, 38.71242339, 1.17381350
9113, 38.70039018, 1.91292161
9114, 39.06551171, 1.56322386
9115, 38.70640678, 1.54336756
9116, 39.08755736, 2.30303392
9117, 38.72789938, 2.68590661
9118, 38.71414478, 2.29941411
9119, 39.60960067, 4.22920772
9120, 39.94718356, 3.83655087
9121, 39.54511921, 3.45072090
9122, 39.20753633, 3.84337776
9123, 39.57735994, 3.83996431
9124, 39.13933231, 3.06761296
9125, 39.88475727, 3.05958265
9126, 39.47897037, 2.67647471
9127, 39.51204479, 3.06359781
9128, 40.22710259, 2.66030254
9129, 40.29438525, 3.44218124
9130, 40.63673056, 3.04290113
9131, 40.26074392, 3.05124189
9132, 40.69811079, 3.83513191
9133, 40.35090910, 4.22950153
9134, 40.32264717, 3.83584139
9135, 40.22734263, -1.48290978
9136, 39.84319800, -1.15199489
9137, 40.17415081, -0.75408588
9138, 40.55829544, -1.08500078
9139, 40.20074672, -1.11849783
9140, 40.47994263, -0.37386684
9141, 39.80115224, -0.45509540
9142, 40.10694406, -0.07487635
9143, 40.14054743, -0.41448112
9144, 39.44512876, -0.13992223
9145, 39.48432353, -0.81610014
9146, 39.12830006, -0.50092698
9147, 39.46472615, -0.47801119
9148, 39.15144598, -1.18157505
9149, 39.51032044, -1.51746979
9150, 39.49732199, -1.16678497
9151, 47.04887764, 0.93840331
9152, 46.59815930, 1.39261060
9153, 47.04928166, 1.89651498
9154, 47.04907965, 1.41745914
9155, 46.59866201, 2.34711887
9156, 47.04933101, 2.37548251
9157, 46.14824389, 1.84302438
9158, 45.69903694, 2.28954115
9159, 46.14884948, 2.31833001
9160, 45.69682645, 1.34182729
9161, 46.14674187, 0.89141351
9162, 46.14749288, 1.36721894
9163, 34.32922808, -10.18192763
9164, 33.96756399, -10.35396595
9165, 33.82657631, -9.98849510
9166, 34.18824040, -9.81645679
9167, 34.07790220, -10.08521137
9168, 33.68929778, -9.61733432
9169, 33.46563150, -10.15507642
9170, 33.32835297, -9.78391564
9171, 33.57746464, -9.88620537
9172, 33.10278856, -10.32399520
9173, 33.60346665, -10.52937658
9174, 33.35312761, -10.42668589
9175, 34.10622643, -10.72939479
9176, 33.85484654, -10.62938568
9177, 40.61435808, -1.84523914
9178, 40.26054814, -2.24185805
9179, 39.87353269, -1.87952869
9180, 40.24394538, -1.86238392
9181, 39.52133802, -2.24548498
9182, 39.15812578, -1.88342608
9183, 39.51582923, -1.88147739
9184, 39.14859491, -2.61281402
9185, 39.88742106, -2.63313899
9186, 39.51467795, -3.00046803
9187, 39.51800798, -2.62297651
9188, 40.27197486, -3.02199418
9189, 40.64510194, -2.63071324
9190, 40.26626150, -2.63192611
9191, 47.04596301, -2.89553755
9192, 46.59426654, -2.42893583
9193, 47.04830354, -1.93724443
9194, 47.04713327, -2.41639099
9195, 46.59703451, -1.47371840
9196, 47.04873097, -0.97878166
9197, 47.04851726, -1.45801305
9198, 46.14741103, -1.01438432
9199, 46.14701962, -1.96612545
9200, 45.69739614, -1.50679137
9201, 46.14721533, -1.49025489
9202, 45.69405638, -2.45377461
9203, 46.14130331, -2.91658498
9204, 46.14416146, -2.44135522
9205, 32.60412671, -10.11368163
9206, 32.96779694, -9.94589153
9207, 32.85345764, -10.21883841
9208, 32.83486363, -9.56728060
9209, 33.19541967, -9.40530471
9210, 33.08160830, -9.67559812
9211, 32.70588970, -9.17983339
9212, 32.47393244, -9.72614382
9213, 32.34495851, -9.33869660
9214, 32.58991107, -9.45298860
9215, 32.10741870, -9.89773741
9216, 32.35577270, -10.00570952
9217, 38.15366150, -0.25131010
9218, 38.47929451, -0.53476520
9219, 38.19312104, -0.86063702
9220, 38.17339127, -0.55597356
9221, 38.49153466, -1.18229109
9222, 38.17144562, -1.47746305
9223, 38.18228333, -1.16905003
9224, 38.82373606, -1.51725505
9225, 38.81924458, -0.84661108
9226, 38.82149032, -1.18193307
9227, 38.78834998, -0.18908110
9228, 38.80379728, -0.51784609
9229, 40.09332313, 1.20690808
9230, 39.77718486, 1.57344787
9231, 40.15830287, 1.90853821
9232, 40.47444114, 1.54199843
9233, 40.12581300, 1.55772315
9234, 40.56057321, 2.26870285
9235, 39.82483225, 2.30013790
9236, 40.19270273, 2.28442038
9237, 39.43341924, 1.92669711
9238, 39.45619481, 2.30158591
9239, 39.40927733, 1.20997461
9240, 39.42134828, 1.56833586
9241, 35.11517805, 11.05587959
9242, 34.94414567, 10.69548300
9243, 34.59812932, 10.89104607
9244, 34.85665368, 10.97346283
9245, 34.43048204, 10.52524838
9246, 34.08399447, 10.72339017
9247, 34.34106190, 10.80721812
9248, 34.26093872, 10.16182790
9249, 34.77126916, 10.33342488
9250, 34.60172584, 9.97000440
9251, 34.51610394, 10.24762639
9252, 35.11584031, 10.13981166
9253, 35.28871681, 10.50186977
9254, 35.02999299, 10.41764733
9255, 29.69807016, -4.18931192
9256, 29.65666389, -3.75982439
9257, 30.02676383, -3.72361726
9258, 30.06817010, -4.15310479
9259, 29.86241700, -3.95646459
9260, 30.39629128, -3.69450340
9261, 29.99317126, -3.30709336
9262, 30.36269870, -3.27797950
9263, 30.19473127, -3.50079838
9264, 29.96744899, -2.89401399
9265, 29.62479912, -3.32070535
9266, 29.59907685, -2.90762598
9267, 29.79612406, -3.10735967
9268, 29.24476060, -3.34221483
9269, 29.27662537, -3.78133387
9270, 29.45071224, -3.55101961
9271, 40.99042704, 2.63144228
9272, 41.32413189, 2.20650919
9273, 40.89427806, 1.84376976
9274, 40.94235255, 2.23760602
9275, 41.17596274, 1.43010232
9276, 40.82520194, 1.48605038
9277, 41.67943848, 1.74612389
9278, 41.97799766, 1.17059862
9279, 41.57698020, 1.30035047
9280, 42.14064758, 2.14123017
9281, 41.78534099, 2.60161547
9282, 41.73238973, 2.17386968
9283, 46.99336867, 8.65442060
9284, 46.51063990, 9.15884153
9285, 47.01727123, 9.63903631
9286, 47.00531995, 9.14672846
9287, 46.56728781, 10.14591898
9288, 47.05001658, 10.60303652
9289, 47.03364391, 10.12103641
9290, 46.16180525, 10.66899043
9291, 46.06576393, 9.72033496
9292, 45.66028136, 10.24340640
9293, 46.11378459, 10.19466269
9294, 45.45594887, 9.22330808
9295, 45.90082484, 8.66181465
9296, 45.98329439, 9.19107481
9297, 36.15980026, 10.47982172
9298, 35.81005233, 10.66892756
9299, 35.98058186, 11.02460980
9300, 36.33032980, 10.83550397
9301, 36.07019106, 10.75221576
9302, 36.15130908, 11.38105982
9303, 35.63347438, 11.21950228
9304, 35.89239173, 11.30028105
9305, 35.46197078, 10.86168439
9306, 35.37432622, 11.13769094
9307, 35.63679836, 10.30911294
9308, 35.54938457, 10.58539867
9309, 43.88976057, 1.23418943
9310, 44.34754601, 1.73304269
9311, 44.79603187, 1.28733809
9312, 44.33824642, 0.78848483
9313, 44.34289622, 1.26076376
9314, 45.24451993, 0.84141986
9315, 45.24833839, 1.78774551
9316, 45.24642916, 1.31458269
9317, 44.80297978, 2.22903426
9318, 45.25367833, 2.73082990
9319, 45.25100836, 2.25928770
9320, 44.36359074, 2.66954394
9321, 43.90815697, 2.17355237
9322, 44.35556838, 2.20129331
9323, 39.75480604, 0.88351088
9324, 39.41819057, 0.52802205
9325, 39.07266186, 0.85448578
9326, 39.41373395, 0.86899833
9327, 39.09810515, 0.17178387
9328, 39.76521418, 0.21631595
9329, 39.43165966, 0.19404991
9330, 40.07079377, 0.56257226
9331, 40.08886892, 0.24384795
9332, 40.08205845, 0.88474017
9333, 37.79819578, 0.02794920
9334, 38.08459151, 0.39641556
9335, 38.44005723, 0.11715626
9336, 38.11912650, 0.07255273
9337, 38.74981240, 0.47802124
9338, 38.76908119, 0.14447007
9339, 38.38957393, 0.79734896
9340, 38.73111789, 0.82591737
9341, 37.70690142, 0.69512209
9342, 38.04823768, 0.74623552
9343, 46.59763859, -0.51842999
9344, 47.04890761, -0.02041756
9345, 47.04881929, -0.49959961
9346, 46.59778525, 0.43721652
9347, 47.04889263, 0.45899288
9348, 46.14709483, -0.06224148
9349, 45.69605144, 0.39195550
9350, 46.14691835, 0.41458601
9351, 45.69686727, -0.55819582
9352, 46.14725293, -0.53831290
9353, 30.76068909, -3.66591189
9354, 30.79424783, -4.08176198
9355, 30.42985001, -4.11035349
9356, 30.59526955, -3.88813269
9357, 30.47885713, -4.53477163
9358, 30.11717722, -4.57752293
9359, 30.27351362, -4.34393821
9360, 30.53301600, -4.94781913
9361, 30.82603541, -4.48049677
9362, 30.88019428, -4.89354427
9363, 30.67952571, -4.71415795
9364, 31.16777208, -4.44617337
9365, 31.13598449, -4.04743857
9366, 30.98100995, -4.26396767
9367, 45.24999611, -1.05389116
9368, 44.79938307, -0.60336445
9369, 45.24625423, -0.10766910
9370, 45.24812517, -0.58078013
9371, 44.79472272, 0.34179526
9372, 45.24538708, 0.36687538
9373, 44.34419675, -0.15869238
9374, 43.88772046, 0.28799719
9375, 44.34122159, 0.31489622
9376, 43.90233720, -0.65486444
9377, 44.35752352, -1.09953650
9378, 44.35086014, -0.62911444
9379, 36.69932095, -9.44946670
9380, 36.51280968, -9.09644780
9381, 36.89323670, -8.89645737
9382, 37.07974797, -9.24947628
9383, 36.79627882, -9.17296204
9384, 37.26185096, -8.67498367
9385, 36.67838002, -8.54902508
9386, 37.04699428, -8.32755138
9387, 36.97011549, -8.61200438
9388, 36.48354274, -8.22643088
9389, 36.33805670, -8.75798851
9390, 36.14321942, -8.43539430
9391, 36.41079972, -8.49220969
9392, 35.97732778, -8.95072535
9393, 36.15208076, -9.28918464
9394, 36.24506873, -9.02358657
9395, 29.08676736, -5.22281168
9396, 29.01208274, -4.76122758
9397, 29.38571202, -4.69050705
9398, 29.46039664, -5.15209116
9399, 29.23623969, -4.95665937
9400, 29.75633754, -4.63725927
9401, 29.32744464, -4.24255970
9402, 29.54189109, -4.43990949
9403, 28.94386788, -4.28335635
9404, 28.89304861, -3.82213052
9405, 29.11024663, -4.03234511
9406, 28.55470814, -4.34175038
9407, 28.62292299, -4.81962161
9408, 28.78339544, -4.55148898
9409, 39.65311481, -9.78601912
9410, 40.00009368, -9.56743519
9411, 40.20533124, -9.88872103
9412, 39.85835237, -10.10730495
9413, 39.92922303, -9.83737007
9414, 40.37745763, -10.17915619
9415, 40.51433921, -9.70161468
9416, 40.44589842, -9.94038543
9417, 40.38966712, -9.36756638
9418, 40.74996554, -9.22458241
9419, 40.63215238, -9.46309854
9420, 40.20521241, -9.01164480
9421, 39.81563897, -9.21151362
9422, 40.10265305, -9.28954000
9423, 31.61867576, 9.66121350
9424, 31.49483865, 9.26290306
9425, 31.14045036, 9.40989100
9426, 31.37956306, 9.53555225
9427, 31.37533708, 8.86629576
9428, 31.84580109, 9.12263386
9429, 31.72629951, 8.72602656
9430, 31.61056908, 8.99446481
9431, 32.19104310, 8.97761552
9432, 31.97039472, 9.50952876
9433, 32.31563673, 9.36451042
9434, 32.08071891, 9.24357214
9435, 32.09772163, 9.90572920
9436, 31.85819870, 9.78347135
9437, 30.66032518, 9.14879123
9438, 30.53141314, 8.70495930
9439, 30.17194503, 8.86594450
9440, 30.41613510, 9.00736786
9441, 30.41982920, 8.27756334
9442, 30.90030954, 8.59026932
9443, 30.78872561, 8.16287336
9444, 30.66006937, 8.43391633
9445, 31.25744335, 8.45687179
9446, 31.01820327, 8.99969330
9447, 31.13782331, 8.72828254
9448, 30.90038777, 9.27934111
9449, 31.98576417, -9.49101080
9450, 31.86213141, -9.09038899
9451, 32.22132575, -8.93807480
9452, 32.10354496, -9.21454280
9453, 31.74174500, -8.67877069
9454, 31.50298937, -9.23957852
9455, 31.62236718, -8.95917460
9456, 31.62434814, -9.65068732
9457, 31.38363842, -9.52388997
9458, 31.86588342, -9.77421237
9459, 37.79541700, 11.26658349
9460, 37.99916808, 11.54729350
9461, 38.26941990, 11.33670358
9462, 38.03241845, 11.30164354
9463, 38.21512080, 11.85740365
9464, 37.70074622, 11.75569135
9465, 37.95793351, 11.80654750
9466, 37.50254732, 11.44703893
9467, 37.18886079, 11.64037142
9468, 37.44480350, 11.69803138
9469, 37.33009907, 11.14867474
9470, 37.56275804, 11.20762912
9471, 29.98484532, -5.96941359
9472, 29.90324153, -5.52892777
9473, 30.25486231, -5.44719811
9474, 30.33646611, -5.88768393
9475, 30.11985382, -5.70830585
9476, 30.60431832, -5.37734275
9477, 30.18355999, -5.01767449
9478, 30.39393916, -5.19750862
9479, 29.82272031, -5.07741083
9480, 29.96994877, -4.82746688
9481, 29.54091786, -5.60360810
9482, 29.68181908, -5.34050947
9483, 33.42481409, 3.76694071
9484, 32.98481951, 3.92776673
9485, 33.13855835, 4.39496177
9486, 33.57855293, 4.23413575
9487, 33.28168622, 4.08095124
9488, 33.28712502, 4.86593204
9489, 32.69969921, 4.54844347
9490, 32.84826589, 5.01941374
9491, 32.99341212, 4.70718775
9492, 32.26085187, 4.70147049
9493, 32.54885230, 4.08333200
9494, 32.11000496, 4.23635902
9495, 32.40485209, 4.39240124
9496, 32.39667700, 3.62636035
9497, 32.83264421, 3.47079508
9498, 32.69074825, 3.77706354
9499, 41.10848397, 4.24546135
9500, 41.47030946, 3.84981532
9501, 41.05993628, 3.43948588
9502, 41.08421012, 3.84247362
9503, 41.41363275, 3.02802703
9504, 41.02518166, 3.03546408
9505, 41.84958576, 3.44884654
9506, 42.22129399, 3.02243498
9507, 41.81746337, 3.02523100
9508, 42.26606683, 3.88038385
9509, 41.88679053, 4.28135263
9510, 41.86818814, 3.86509959
9511, 46.56820956, -4.34545366
9512, 47.04009269, -3.85450318
9513, 47.03410478, -4.33618837
9514, 46.58605569, -3.38465612
9515, 47.04302785, -3.37502037
9516, 46.12595510, -3.86744862
9517, 45.68120271, -3.39937749
9518, 46.13362920, -3.39201680
9519, 45.65105919, -4.34854276
9520, 46.10963438, -4.34699821
9521, 32.58967710, 10.11908081
9522, 32.44978576, 9.73953478
9523, 32.34369936, 10.01240500
9524, 32.79011962, 9.58541632
9525, 32.65597059, 9.21039196
9526, 32.55287818, 9.47496337
9527, 33.12624658, 9.42229122
9528, 32.93510857, 9.95285886
9529, 33.27123552, 9.78973376
9530, 33.03067757, 9.68757504
9531, 33.08454981, 10.32556334
9532, 32.83711345, 10.22232207
9533, 37.23893329, 7.39319779
9534, 37.45677706, 7.73400161
9535, 37.75007458, 7.50347070
9536, 37.49450393, 7.44833424
9537, 38.00507399, 7.82789932
9538, 38.28346081, 7.55806431
9539, 38.01676770, 7.53076750
9540, 38.26246646, 8.18659116
9541, 37.68683710, 8.09503739
9542, 37.94422956, 8.45372922
9543, 37.97465178, 8.14081427
9544, 37.36631027, 8.33482155
9545, 37.13625022, 7.97378577
9546, 37.41154366, 8.03441158
9547, 43.84274884, -5.17715810
9548, 43.40289181, -5.57720581
9549, 43.02127030, -5.13495914
9550, 43.46112733, -4.73491143
9551, 43.43200957, -5.15605862
9552, 42.63774805, -4.70681140
9553, 42.59629523, -5.53434746
9554, 42.21277298, -5.10619972
9555, 42.61702164, -5.12057943
9556, 42.17042836, -5.92834770
9557, 42.97236297, -5.95839070
9558, 42.54649611, -6.35239093
9559, 42.57139567, -5.94336920
9560, 43.33526675, -6.38092962
9561, 43.76579559, -5.99974474
9562, 43.36907928, -5.97906772
9563, 32.98553242, 9.06408144
9564, 32.86096343, 8.69639538
9565, 32.53140159, 8.84270590
9566, 32.75846701, 8.95339367
9567, 32.75565937, 8.34478109
9568, 33.17163785, 8.56792312
9569, 32.96364861, 8.45635211
9570, 33.30824301, 8.90178962
9571, 33.60595010, 8.73894115
9572, 33.38879397, 8.65343214
9573, 33.44895717, 9.25999940
9574, 33.21724479, 9.16204042
9575, 34.09776997, 9.79633873
9576, 33.76108968, 9.97992944
9577, 33.92425843, 10.34541862
9578, 34.01101420, 10.07087867
9579, 33.58239304, 10.52683387
9580, 33.83319376, 10.62511202
9581, 33.42631914, 10.15410186
9582, 33.33347143, 10.42619861
9583, 33.60600607, 9.61556135
9584, 33.51616260, 9.88483160
9585, 46.23981524, -10.69611363
9586, 46.66063571, -11.11676338
9587, 46.24900689, -11.59897322
9588, 45.82818642, -11.17832347
9589, 46.24441107, -11.14754342
9590, 45.83346563, -12.05979066
9591, 46.66554125, -12.03918256
9592, 46.24950344, -12.04948661
9593, 47.08220792, -11.55841333
9594, 47.08277063, -12.02920666
9595, 47.07842779, -10.61604236
9596, 47.08031785, -11.08722784
9597, 22.64510292, 2.82107368
9598, 22.49985557, 2.39140266
9599, 22.10654827, 2.49937886
9600, 22.25179561, 2.92904988
9601, 22.37582559, 2.66022627
9602, 21.62860290, 2.54704134
9603, 22.01566665, 2.05517199
9604, 21.82213477, 2.30110667
9605, 22.38463164, 1.98130087
9606, 22.29575017, 1.58559193
9607, 22.15570841, 1.82038196
9608, 22.75972472, 1.88654633
9609, 22.87494865, 2.29664812
9610, 22.62979015, 2.13897450
9611, 35.65581508, -11.22831429
9612, 36.02523079, -11.04098793
9613, 36.17361731, -11.38862593
9614, 35.91471619, -11.30847011
9615, 36.39747337, -10.85929056
9616, 35.87706201, -10.69669543
9617, 36.24930459, -10.51499806
9618, 36.13726769, -10.77799299
9619, 35.72649235, -10.34817231
9620, 35.50670861, -10.87960261
9621, 35.35613895, -10.53107949
9622, 35.61660048, -10.61388746
9623, 35.13757518, -11.06498580
9624, 35.39669513, -11.14665004
9625, 41.43911537, 12.14220999
9626, 41.18576167, 11.82737669
9627, 40.89202108, 12.12633572
9628, 41.16556822, 12.13427286
9629, 40.63805413, 11.81118166
9630, 40.34955773, 12.10248257
9631, 40.62078941, 12.11440915
9632, 40.38120206, 11.50672377
9633, 40.92290888, 11.52634257
9634, 40.66605681, 11.22188468
9635, 40.65205547, 11.51653317
9636, 41.21267010, 11.22508046
9637, 41.47552289, 11.52611458
9638, 41.19921589, 11.52622858
9639, 33.68183628, -5.66578578
9640, 33.54817722, -5.25830142
9641, 33.92360091, -5.10891317
9642, 34.05725997, -5.51639754
9643, 33.80271859, -5.38734948
9644, 34.29816763, -4.95758164
9645, 33.78150885, -4.70557292
9646, 34.15607558, -4.55424139
9647, 34.03983824, -4.83157728
9648, 33.64200898, -4.29828460
9649, 33.41324619, -4.85096759
9650, 33.27374632, -4.44367927
9651, 33.52762758, -4.57462609
9652, 33.04902791, -4.99909512
9653, 33.18395894, -5.40642895
9654, 33.29860256, -5.12869827
9655, 31.25875714, -1.40949525
9656, 30.85767489, -1.52215278
9657, 30.73301995, -1.11855403
9658, 30.99588854, -1.26402464
9659, 30.46080951, -1.62210605
9660, 30.96884978, -1.92708342
9661, 30.57198441, -2.02703669
9662, 30.71482965, -1.77459474
9663, 31.04872334, -2.36644804
9664, 31.39466576, -1.85203205
9665, 31.47453931, -2.29139667
9666, 31.22169455, -2.10924004
9667, 31.88022761, -1.69382867
9668, 31.56949237, -1.55166196
9669, 44.30652016, -4.77036850
9670, 44.68769022, -5.24350163
9671, 44.22391891, -5.65029123
9672, 44.26521953, -5.21032987
9673, 44.54936006, -6.11023472
9674, 44.15757783, -6.05498973
9675, 45.09126749, -5.74800133
9676, 44.99321665, -6.23997189
9677, 45.18294851, -4.80728952
9678, 45.13710800, -5.27764542
9679, 33.17724640, -8.09917292
9680, 33.30116658, -8.48722176
9681, 32.94079874, -8.63588091
9682, 32.81687855, -8.24783206
9683, 33.05902257, -8.36752691
9684, 32.58007974, -8.79068251
9685, 33.06660870, -9.02503178
9686, 32.82334422, -8.90785715
9687, 33.42651652, -8.86687546
9688, 33.55532749, -9.24714839
9689, 33.31096809, -9.13609009
9690, 33.78557997, -8.71537140
9691, 33.66023003, -8.33571770
9692, 33.54337328, -8.60129658
9693, 44.37140075, 4.50538100
9694, 44.80817605, 4.08998150
9695, 44.37504514, 3.59264343
9696, 43.93826984, 4.00804293
9697, 44.37322295, 4.04901221
9698, 43.92897560, 3.09867920
9699, 44.80966029, 3.16350817
9700, 44.36931794, 3.13109368
9701, 45.25589372, 3.66638853
9702, 45.25478603, 3.19860922
9703, 45.24727490, 4.59820943
9704, 45.25158431, 4.13229898
9705, 37.72389789, -11.76137183
9706, 38.04650332, -11.55878770
9707, 38.23930436, -11.86321737
9708, 37.98160113, -11.81229460
9709, 38.34168049, -11.35490270
9710, 37.86412358, -11.28379688
9711, 38.10290204, -11.31934979
9712, 37.54829994, -11.45848792
9713, 37.39779428, -11.16653769
9714, 37.63095893, -11.22516729
9715, 37.21146173, -11.64613994
9716, 37.46767981, -11.70375588
9717, 35.12237611, -8.95617525
9718, 35.26775281, -9.30539903
9719, 34.91060569, -9.47432949
9720, 34.76522900, -9.12510571
9721, 35.01649090, -9.21525237
9722, 34.54809604, -9.64852306
9723, 35.05641657, -9.82890431
9724, 34.69390692, -10.00309788
9725, 34.80225631, -9.73871368
9726, 35.20698899, -10.17891354
9727, 35.42186624, -9.65018133
9728, 35.57243867, -10.00019056
9729, 35.31442762, -9.91454744
9730, 35.78208929, -9.47328638
9731, 35.62797585, -9.12850408
9732, 35.52492105, -9.38934271
9733, 41.03787496, -4.64176384
9734, 41.41367374, -5.06351901
9735, 41.00621602, -5.43737426
9736, 40.63041725, -5.01561908
9737, 41.02204549, -5.03956905
9738, 40.58824243, -5.79640758
9739, 41.36992279, -5.86865280
9740, 40.95194920, -6.22768613
9741, 40.97908261, -5.83253019
9742, 41.74447128, -6.30524498
9743, 41.79587988, -5.49175552
9744, 41.77017558, -5.89850025
9745, 41.83056683, -4.67796321
9746, 41.81322336, -5.08485937
9747, 36.52032181, 9.36132344
9748, 36.15938594, 9.55390907
9749, 36.34295829, 9.92736523
9750, 36.70389417, 9.73477960
9751, 36.43164005, 9.64434434
9752, 36.51613620, 10.29197245
9753, 35.98662236, 10.11521451
9754, 36.25137928, 10.20359348
9755, 35.80921906, 9.75054678
9756, 35.45939506, 9.94444522
9757, 35.72300871, 10.02982986
9758, 35.62456590, 9.38148433
9759, 35.97473278, 9.18484662
9760, 35.89197592, 9.46769670
9761, 46.52654738, 7.14200843
9762, 47.00190584, 7.66418677
9763, 47.01327369, 7.17677345
9764, 46.49527451, 8.14553044
9765, 46.99763725, 8.15930368
9766, 46.01056539, 7.57780207
9767, 45.41611572, 8.09408628
9768, 45.95569512, 8.11980836
9769, 45.56559696, 7.02889452
9770, 46.04607217, 7.08545148
9771, 37.00449405, 11.32191277
9772, 36.67305371, 11.51378754
9773, 36.93095725, 11.57707948
9774, 36.49658160, 11.17937883
9775, 36.41218140, 11.44742368
9776, 36.84210987, 10.99646338
9777, 36.67585807, 10.65258852
9778, 36.58621983, 10.91598367
9779, 37.16771488, 10.82322534
9780, 37.08610447, 11.07256906
9781, 34.84002971, -10.36086771
9782, 34.47535087, -10.53969746
9783, 34.58462890, -10.27139767
9784, 34.62076619, -10.89949053
9785, 34.36349631, -10.81444266
9786, 34.98917967, -10.71303365
9787, 34.87917068, -10.98223816
9788, 35.09808433, -10.44597360
9789, 36.09846028, -10.16665668
9790, 36.47814072, -9.98747704
9791, 36.62898503, -10.33581842
9792, 36.36372266, -10.25123755
9793, 36.86306361, -9.80237055
9794, 36.31439806, -9.63457319
9795, 36.58873084, -9.71847187
9796, 35.94440659, -9.81867494
9797, 36.04824368, -9.55392979
9798, 35.83544947, -10.08342362
9799, 35.02998739, 7.30329084
9800, 34.84731724, 6.89332792
9801, 34.47499228, 7.09431691
9802, 34.65766243, 7.50427982
9803, 34.75248984, 7.19880387
9804, 34.02595227, 7.33268261
9805, 34.28411359, 6.63419218
9806, 33.83507358, 6.87255788
9807, 34.15503293, 6.98343740
9808, 34.14157169, 6.16957418
9809, 34.70692329, 6.47190568
9810, 34.56438139, 6.00728768
9811, 34.42424749, 6.32073993
9812, 35.09012896, 6.31225861
9813, 35.23052291, 6.73368086
9814, 34.96872310, 6.60279327
9815, 28.05527694, 3.79425933
9816, 28.51600833, 3.73564602
9817, 28.45085269, 3.22681765
9818, 27.99012129, 3.28543097
9819, 28.25306481, 3.51053849
9820, 28.37683775, 2.75963478
9821, 28.88248402, 3.15806193
9822, 28.80846908, 2.69087905
9823, 28.62966088, 2.95884835
9824, 29.32851375, 3.05453410
9825, 28.98540566, 3.63948231
9826, 29.43143539, 3.53595448
9827, 29.15695971, 3.34700821
9828, 29.08375297, 4.15457747
9829, 28.61435564, 4.25074117
9830, 28.79988065, 3.94511174
9831, 33.67437094, -7.02269820
9832, 33.79315460, -7.41673870
9833, 33.42320458, -7.56016295
9834, 33.30442091, -7.16612245
9835, 33.54878776, -7.29143057
9836, 33.05803011, -7.70726774
9837, 33.54242087, -7.95206813
9838, 33.30022549, -7.82966793
9839, 33.90650347, -7.80460967
9840, 34.02431264, -8.18825924
9841, 33.78336675, -8.07016368
9842, 34.27796502, -7.66384566
9843, 34.16461615, -7.27597468
9844, 34.03555981, -7.54029218
9845, 40.91271638, -12.12958967
9846, 41.22615904, -11.82962510
9847, 41.45881744, -12.14120445
9848, 41.18576691, -12.13539706
9849, 41.53095649, -11.52524519
9850, 40.98280209, -11.53908549
9851, 41.28759955, -11.23470558
9852, 41.25687929, -11.53216534
9853, 40.75011389, -11.24614106
9854, 40.68173577, -11.82004398
9855, 40.44904756, -11.52709955
9856, 40.71592483, -11.53309252
9857, 40.37254407, -12.10809094
9858, 40.64263023, -12.11884031
9859, 39.29991194, -11.99203057
9860, 39.60942338, -11.74469005
9861, 39.83545567, -12.05289988
9862, 39.56768381, -12.02246522
9863, 40.14428523, -11.79033039
9864, 40.10399987, -12.08049541
9865, 39.91528390, -11.49232352
9866, 40.22004623, -11.22909268
9867, 40.18216573, -11.50971154
9868, 39.68771784, -11.19366886
9869, 39.38185732, -11.44603539
9870, 39.64857061, -11.46917945
9871, 20.30330620, 0.93440545
9872, 20.64926472, 0.68514934
9873, 20.38509855, 0.31012941
9874, 20.03914003, 0.55938552
9875, 20.34420238, 0.62226743
9876, 20.17213988, -0.15309890
9877, 20.77739982, 0.12043152
9878, 20.47476985, -0.01633369
9879, 20.97262053, 0.46901567
9880, 21.30393216, 0.28541981
9881, 21.04066599, 0.20292567
9882, 21.19866071, 0.81775417
9883, 20.87530490, 1.03388784
9884, 20.92396272, 0.75145176
9885, 39.27419899, 11.98460468
9886, 39.02679038, 11.67753252
9887, 38.74076535, 11.92274821
9888, 39.00748217, 11.95367645
9889, 38.50548246, 11.62075152
9890, 38.47794307, 11.89007593
9891, 38.77437295, 11.37839135
9892, 38.53831039, 11.09434341
9893, 38.52189643, 11.35754747
9894, 39.05232942, 11.12231907
9895, 39.30474685, 11.42146025
9896, 39.03955990, 11.39992580
9897, 34.19297767, -5.92524595
9898, 34.31929801, -6.33052420
9899, 33.93460687, -6.47697116
9900, 33.80828653, -6.07169292
9901, 34.06379227, -6.20110856
9902, 33.55557527, -6.62179862
9903, 34.05340254, -6.87787074
9904, 33.80448890, -6.74983468
9905, 34.43955025, -6.73886603
9906, 34.55076385, -7.13696997
9907, 34.30208320, -7.00742035
9908, 34.83676445, -6.59750037
9909, 34.71651221, -6.18915854
9910, 34.57803123, -6.46401228
9911, 35.66442567, -8.30420388
9912, 35.33468973, -8.45131339
9913, 35.21383614, -8.12461828
9914, 35.43913091, -8.21441108
9915, 34.98468628, -8.61424792
9916, 35.47237957, -8.79324073
9917, 35.22853292, -8.70374432
9918, 35.82173149, -8.61546199
9919, 35.72485367, -8.87198304
9920, 35.90382254, -8.36979909
9921, 33.86006590, 3.59307276
9922, 33.69096773, 3.13672498
9923, 33.25571592, 3.31059293
9924, 33.55789091, 3.45183285
9925, 33.09643091, 2.87540288
9926, 32.67335920, 3.03560504
9927, 32.96453756, 3.17309898
9928, 32.93338320, 2.48073290
9929, 33.48060058, 2.71214198
9930, 33.20699189, 2.59643744
9931, 34.13119506, 2.88709652
9932, 33.80589782, 2.79961925
9933, 38.60450650, -10.01711117
9934, 38.95318851, -10.30540949
9935, 38.66109549, -10.61109894
9936, 38.63280099, -10.31410506
9937, 38.90772907, -10.86672535
9938, 38.63692374, -11.12227330
9939, 38.64900962, -10.86668612
9940, 39.15426326, -11.15501282
9941, 39.20977767, -10.61101777
9942, 39.45631185, -10.89930523
9943, 39.18202046, -10.88301529
9944, 39.53822739, -10.34711527
9945, 39.28163824, -10.04150699
9946, 39.24570795, -10.32626238
9947, 42.37962880, 11.15617647
9948, 42.05023485, 11.50498848
9949, 42.34725892, 11.81494412
9950, 42.67665287, 11.46613211
9951, 42.36344386, 11.48556029
9952, 42.58068729, 12.15240448
9953, 41.99564659, 12.15077344
9954, 42.28816694, 12.15158896
9955, 41.74753710, 11.82828202
9956, 41.71738098, 12.14649172
9957, 41.77822064, 11.20282103
9958, 41.76287887, 11.51555153
9959, 34.40976154, -9.28582479
9960, 34.27523627, -8.92662013
9961, 34.63070373, -8.76590105
9962, 34.52023263, -9.02586292
9963, 34.14488063, -8.55841895
9964, 33.91593561, -9.08357259
9965, 34.03040812, -8.82099577
9966, 34.04990590, -9.45375852
9967, 33.80261669, -9.35045346
9968, 34.29900097, -9.55114079
9969, 32.69795458, -7.84708924
9970, 32.58240972, -7.44404065
9971, 32.94248525, -7.30421915
9972, 32.82021991, -7.57565419
9973, 32.82571106, -6.90200540
9974, 33.18764672, -6.76390870
9975, 33.06506599, -7.03406393
9976, 32.71070065, -6.49714500
9977, 32.46923089, -7.03547988
9978, 32.35422048, -6.63061948
9979, 32.58996577, -6.76631244
9980, 32.11153754, -7.17015291
9981, 32.22471636, -7.57871367
9982, 32.34697363, -7.30709678
9983, 40.20703215, 10.04882172
9984, 39.91660302, 10.30518929
9985, 40.15721177, 10.61879958
9986, 40.44764090, 10.36243201
9987, 40.18212196, 10.33381065
9988, 40.41023144, 10.92695331
9989, 39.87339088, 10.88796753
9990, 40.12641055, 11.19612126
9991, 40.14181116, 10.90746042
9992, 39.58754381, 11.15831560
9993, 39.61361333, 10.57747169
9994, 39.32776625, 10.84781977
9995, 39.60057857, 10.86789365
9996, 39.35352945, 10.25401991
9997, 39.65651914, 9.98173751
9998, 39.63506623, 10.27960460
9999, 36.76596123, -10.68327068
10000, 36.90985671, -11.01772600
10001, 36.54136884, -11.19374588
10002, 36.65366504, -10.93850828
10003, 36.69553273, -11.52058848
10004, 36.43457502, -11.45460720
10005, 37.04957402, -11.33448223
10006, 36.95349723, -11.58336421
10007, 37.25807697, -10.84978146
10008, 37.15382550, -11.09213184
10009, 44.75879322, -4.32912357
10010, 45.22690390, -3.87037681
10011, 45.20492621, -4.33883316
10012, 44.79243783, -3.40677249
10013, 45.24673664, -2.93577317
10014, 45.23682027, -3.40307499
10015, 44.36705464, -2.95471776
10016, 44.34900814, -3.86634017
10017, 43.92362495, -3.41428544
10018, 44.35803139, -3.41052897
10019, 43.89673508, -4.30758510
10020, 44.32776415, -4.31835433
10021, 39.39712794, 9.63201867
10022, 39.10901268, 9.28259956
10023, 38.77691708, 9.58515441
10024, 39.06503234, 9.93457351
10025, 39.08702251, 9.60858654
10026, 38.39755522, 9.93416789
10027, 38.47481759, 9.21189321
10028, 38.09545573, 9.56090669
10029, 38.43618640, 9.57303055
10030, 38.19795905, 8.83910637
10031, 38.82186431, 8.91641366
10032, 38.54500578, 8.54362683
10033, 38.50991168, 8.87776002
10034, 39.16687122, 8.61371861
10035, 39.45401959, 8.97990451
10036, 39.13794195, 8.94815909
10037, 38.78023214, 10.82161264
10038, 38.51293320, 10.55949939
10039, 38.52562180, 10.82692140
10040, 38.76717187, 10.22766693
10041, 38.45524421, 10.24683364
10042, 39.05566898, 10.54711333
10043, 39.06035066, 10.24084342
10044, 39.05399920, 10.83471620
10045, 38.85003748, -11.40092963
10046, 38.55479423, -11.63355902
10047, 38.59585899, -11.37791616
10048, 38.76589356, -11.92974200
10049, 38.50259896, -11.89647968
10050, 39.07763154, -11.69195219
10051, 39.03290275, -11.96088628
10052, 39.11594740, -11.42348251
10053, 42.20246327, -1.70716331
10054, 41.82203345, -2.16781979
10055, 41.39040476, -1.78098377
10056, 41.77083457, -1.32032729
10057, 41.79643401, -1.74407354
10058, 40.97838595, -1.41324424
10059, 41.02637688, -2.21297866
10060, 41.00238142, -1.81311145
10061, 41.42871934, -2.60677818
10062, 41.04744439, -3.02451275
10063, 41.03691064, -2.61874571
10064, 41.84451189, -3.01375058
10065, 42.23782600, -2.57479219
10066, 41.83327267, -2.59078518
10067, 29.88927905, 3.40759180
10068, 30.33881108, 3.27987158
10069, 30.21358271, 2.81091735
10070, 29.76405068, 2.93863757
10071, 30.05143088, 3.10925458
10072, 30.08715274, 2.35023244
10073, 30.65812280, 2.68370388
10074, 30.37263777, 2.51696816
10075, 30.78870900, 3.14056576
10076, 31.23267476, 3.00789180
10077, 30.94539878, 2.84579784
10078, 30.92367507, 3.60820021
10079, 30.47377715, 3.74750603
10080, 30.63124307, 3.44403590
10081, 39.84198837, 11.46657343
10082, 40.09677988, 11.77717594
10083, 40.11159521, 11.48664860
10084, 39.81093665, 12.04535379
10085, 40.08024719, 12.07391818
10086, 39.55919141, 11.72971808
10087, 39.54256782, 12.01497924
10088, 39.57336761, 11.44401684
10089, 46.61977974, 11.09949009
10090, 47.06976315, 11.55414588
10091, 47.05988987, 11.07859120
10092, 46.65309649, 12.03491511
10093, 47.07654824, 12.02707294
10094, 46.21484176, 11.59011865
10095, 45.81174528, 12.05520353
10096, 46.23242088, 12.04505932
10097, 45.75686727, 11.15961898
10098, 46.18832351, 11.12955454
10099, 37.31289900, 0.97099700
10100, 36.90469763, 1.26538138
10101, 37.20902406, 1.72091100
10102, 37.26096153, 1.34595400
10103, 36.75219264, 1.99514093
10104, 37.06100816, 2.54998248
10105, 37.13501611, 2.13544674
10106, 36.33671186, 2.22360797
10107, 36.50404959, 1.53611547
10108, 36.08856881, 1.76458251
10109, 36.42038073, 1.87986172
10110, 36.21764621, 1.08923753
10111, 36.61829425, 0.81850343
10112, 36.56117192, 1.17730945
10113, 36.81072491, 8.19281433
10114, 36.46815486, 8.40574655
10115, 36.67676275, 8.77893345
10116, 37.01933279, 8.56600123
10117, 36.74374383, 8.48587389
10118, 36.87564476, 9.15733508
10119, 36.32143980, 8.98292180
10120, 36.59854228, 9.07012844
10121, 36.12866630, 8.61068920
10122, 35.78195928, 8.81261402
10123, 36.05169954, 8.89776791
10124, 35.93158292, 8.24080961
10125, 36.27107149, 8.03586696
10126, 36.19986889, 8.32327808
10127, 38.94286790, -8.70904764
10128, 39.18342335, -9.08737452
10129, 38.76923631, -9.34061091
10130, 38.52868086, -8.96228402
10131, 38.85605211, -9.02482927
10132, 38.33562372, -9.65100009
10133, 39.03811909, -9.70672199
10134, 38.68687140, -9.67886104
10135, 39.40959567, -9.45123412
10136, 39.34561695, -9.74637055
10137, 39.58946666, -8.84765402
10138, 39.49953116, -9.14944407
10139, 34.40145489, 8.69011152
10140, 34.07919080, 8.88908883
10141, 34.25908159, 9.24645796
10142, 34.58134568, 9.04748065
10143, 34.33026824, 8.96828474
10144, 34.42733091, 9.60703999
10145, 33.92952066, 9.43575669
10146, 34.17842578, 9.52139834
10147, 33.77247176, 9.08019475
10148, 33.68923891, 9.34787805
10149, 33.91266914, 8.54783524
10150, 33.84257045, 8.81401499
10151, 39.99300150, -10.94372226
10152, 40.28983512, -10.69014964
10153, 40.51687985, -10.97552006
10154, 40.25494067, -10.95962116
10155, 40.58557227, -10.45975750
10156, 40.08172049, -10.40954832
10157, 40.33364638, -10.43465291
10158, 39.76159551, -10.64935864
10159, 39.80997394, -10.37833179
10160, 39.72465668, -10.92151375
10161, 45.25250102, -1.99674869
10162, 44.80510099, -1.54384848
10163, 45.25124857, -1.52531993
10164, 44.36820856, -2.03121674
10165, 43.92063109, -1.58690476
10166, 44.36286604, -1.56537662
10167, 43.93008193, -2.50718725
10168, 44.80518128, -2.47874725
10169, 44.36763160, -2.49296725
10170, 45.24961883, -2.46626093
10171, 34.86185178, -8.25719025
10172, 34.75789130, -7.90176848
10173, 35.10987566, -7.76919650
10174, 34.98586372, -8.01319338
10175, 34.64855508, -7.52693046
10176, 34.38730124, -8.03868368
10177, 34.51792816, -7.78280707
10178, 34.50786923, -8.40884338
10179, 34.26609094, -8.29855131
10180, 34.74627776, -8.51154565
10181, 35.36284912, 3.63997631
10182, 35.52042842, 4.13899974
10183, 35.96479855, 3.99049418
10184, 35.80721926, 3.49147074
10185, 35.66382384, 3.81523524
10186, 36.39661696, 3.81200317
10187, 36.14546499, 4.48336353
10188, 36.57728340, 4.30487252
10189, 36.27104098, 4.14768335
10190, 36.32914351, 5.06710478
10191, 35.66811703, 4.65025674
10192, 35.85179555, 5.23399799
10193, 35.99863027, 4.85868076
10194, 35.21209501, 4.78768002
10195, 35.06440640, 4.27642302
10196, 35.36626171, 4.46333988
10197, 35.28223288, 9.57946894
10198, 34.93867814, 9.77483538
10199, 35.19903660, 9.85964030
10200, 34.76428320, 9.41187097
10201, 34.68300452, 9.69093769
10202, 35.09826891, 9.21162440
10203, 34.91533139, 8.84723408
10204, 34.83980729, 9.12955253
10205, 35.44060192, 9.01363980
10206, 35.36141740, 9.29655437
10207, 32.27081485, 6.25045834
10208, 31.86266768, 6.38931232
10209, 31.99549559, 6.83410823
10210, 32.40364276, 6.69525424
10211, 32.13315522, 6.54228328
10212, 32.12231242, 7.25531792
10213, 31.61293296, 6.96790143
10214, 31.73974979, 7.38911112
10215, 31.86762269, 7.11160967
10216, 31.23849470, 7.12834497
10217, 31.45550822, 6.55530374
10218, 31.08106997, 6.71574729
10219, 31.34700146, 6.84182436
10220, 31.29634271, 6.11312872
10221, 31.70350216, 5.94713730
10222, 31.57950519, 6.25122052
10223, 27.78859148, 5.57921241
10224, 27.20838303, 5.66968129
10225, 27.31315111, 6.30311997
10226, 27.89335956, 6.21265108
10227, 27.55087130, 5.94116619
10228, 27.43240613, 6.95528006
10229, 26.68002562, 6.41179899
10230, 27.05621588, 6.68353952
10231, 26.64048436, 5.70328675
10232, 25.96742771, 5.82147847
10233, 26.32372667, 6.11663873
10234, 26.59586728, 5.05516496
10235, 27.16376595, 5.02155950
10236, 26.90212516, 5.36242313
10237, 29.21722974, 2.59631471
10238, 29.12045476, 2.16750837
10239, 28.96446192, 2.42919371
10240, 29.52557738, 2.02713092
10241, 29.38348268, 1.60271276
10242, 29.25196872, 1.88511057
10243, 29.95996345, 1.89694518
10244, 29.65276666, 2.48041818
10245, 29.80636506, 2.18868168
10246, 29.49064021, 2.76747614
10247, 24.42085734, 4.03820033
10248, 23.98184051, 4.16865678
10249, 24.13517907, 4.62485272
10250, 24.27801821, 4.33152652
10251, 23.75171012, 4.70245702
10252, 23.98013069, 4.85047755
10253, 23.63463843, 4.31316707
10254, 23.30579561, 4.44887760
10255, 23.52875286, 4.57566731
10256, 23.47779638, 3.90660282
10257, 23.82499846, 3.76209253
10258, 23.72981844, 4.03762980
10259, 23.31666401, -4.45522374
10260, 23.65110155, -4.32697173
10261, 23.75730485, -4.70991554
10262, 23.53698443, -4.58256964
10263, 24.14173281, -4.63900209
10264, 23.98340756, -4.85755223
10265, 23.99918953, -4.19211771
10266, 24.43107024, -4.07348337
10267, 24.28640152, -4.35624273
10268, 23.85874362, -3.79227083
10269, 23.51065565, -3.92712486
10270, 23.75492259, -4.05962128
10271, 38.29216682, -8.57631285
10272, 38.03972022, -8.20006148
10273, 38.44200859, -7.95101684
10274, 38.69445519, -8.32726821
10275, 38.36708770, -8.26366484
10276, 38.84002589, -7.69092911
10277, 38.17274463, -7.57488758
10278, 38.57076194, -7.31479985
10279, 38.50638526, -7.63290834
10280, 37.90560565, -7.20993053
10281, 37.79031633, -7.83465265
10282, 37.52317735, -7.46969560
10283, 37.84796099, -7.52229159
10284, 37.40596548, -8.08094987
10285, 37.65536937, -8.44635870
10286, 37.72284285, -8.14050568
10287, 41.45395235, 10.34379492
10288, 41.76174474, 10.59168742
10289, 42.00356735, 10.25463207
10290, 41.69577496, 10.00673957
10291, 41.72875985, 10.29921349
10292, 42.26194373, 9.88514363
10293, 42.34817450, 10.51157767
10294, 42.60655088, 10.14208924
10295, 42.30505911, 10.19836065
10296, 42.67250686, 10.79622105
10297, 42.05529643, 10.87153309
10298, 42.36390165, 10.83387707
10299, 41.48466894, 10.92297536
10300, 41.76998269, 10.89725423
10301, 47.04957107, -8.72226450
10302, 46.56771531, -8.30919210
10303, 47.01814424, -7.76000452
10304, 47.03385765, -8.24113451
10305, 46.51481272, -7.32711076
10306, 47.00740636, -7.26932461
10307, 46.06535204, -7.92516984
10308, 45.46295204, -7.48175940
10309, 45.98888238, -7.40443508
10310, 45.65719074, -8.48604488
10311, 46.15955400, -8.87006715
10312, 46.11245302, -8.39761849
10313, 46.61779205, -9.25938470
10314, 46.21200211, -9.78886394
10315, 45.75376407, -9.39954639
10316, 46.18577806, -9.32946554
10317, 45.80516859, -10.29335347
10318, 46.64664877, -10.19162410
10319, 46.22590868, -10.24248878
10320, 47.06822098, -9.67173558
10321, 47.07332438, -10.14388897
10322, 47.05889602, -9.19700004
10323, 30.32625928, -2.86765315
10324, 30.70480269, -2.83768552
10325, 30.74124211, -3.24801187
10326, 30.53375070, -3.05783251
10327, 31.10212445, -2.78912899
10328, 30.65140158, -2.41500457
10329, 30.87676301, -2.60206678
10330, 30.28529757, -2.48149518
10331, 30.42864099, -2.25426594
10332, 30.12637328, -2.68775459
10333, 19.09075700, 2.12151642
10334, 19.30586043, 2.56541257
10335, 19.74753828, 2.36554386
10336, 19.41914764, 2.24353014
10337, 19.56358574, 2.99790030
10338, 18.84203188, 2.82625234
10339, 19.20280881, 2.91207632
10340, 18.57308880, 2.34029610
10341, 18.09288954, 2.65350373
10342, 18.46746071, 2.73987803
10343, 18.36038994, 1.71947143
10344, 18.72557347, 1.92049392
10345, 40.52088112, 8.81962774
10346, 40.08610196, 9.06664322
10347, 40.31156337, 9.47485042
10348, 40.41622224, 9.14723908
10349, 39.98962848, 9.70639506
10350, 40.25929776, 9.76183607
10351, 39.73023728, 9.35667622
10352, 39.69337821, 9.66920687
10353, 39.80988427, 8.68987152
10354, 39.77006077, 9.02327387
10355, 35.37759779, 7.11171710
10356, 35.71556584, 6.94648554
10357, 35.47304438, 6.84008320
10358, 35.88900576, 7.29969555
10359, 36.20392189, 7.10733681
10360, 35.95974387, 7.02691117
10361, 36.07387471, 7.67076370
10362, 35.55555811, 7.49626760
10363, 35.74042706, 7.86733575
10364, 35.81471641, 7.58351565
10365, 35.20794771, 7.68784133
10366, 35.29277275, 7.39977922
10367, 35.25078684, 8.64186409
10368, 35.05935072, 8.27069218
10369, 34.72389527, 8.47606217
10370, 34.98734106, 8.55896313
10371, 34.86631011, 7.89116906
10372, 35.40098833, 8.06736445
10373, 35.13364922, 7.97926675
10374, 35.59214419, 8.44083832
10375, 35.66628562, 8.15408703
10376, 35.51637306, 8.72723906
10377, 36.53079069, -5.96171688
10378, 36.12023237, -6.14308133
10379, 35.95493649, -5.71873280
10380, 36.36549481, -5.53736835
10381, 36.24286359, -5.84022484
10382, 35.80189807, -5.28896940
10383, 35.53976949, -5.88611621
10384, 35.38673107, -5.45635281
10385, 35.67083378, -5.58754281
10386, 35.11896451, -6.03732680
10387, 35.67410871, -6.31785583
10388, 35.25330373, -6.46906642
10389, 35.39653661, -6.17759132
10390, 35.84019260, -6.81176333
10391, 36.28631625, -6.63698883
10392, 35.98021248, -6.47742233
10393, 23.79075969, -1.36490589
10394, 23.90994547, -1.71376333
10395, 23.59496154, -1.83741246
10396, 23.69286061, -1.60115917
10397, 23.68626187, -2.18549172
10398, 23.37007581, -2.27552452
10399, 23.48251867, -2.05646849
10400, 23.78130472, -2.54524132
10401, 24.00374817, -2.08825474
10402, 24.09879102, -2.44800434
10403, 23.89252644, -2.31674803
10404, 24.33768500, -1.98819827
10405, 24.24388230, -1.61370687
10406, 24.12381524, -1.85098080
10407, 23.22900928, 2.18748332
10408, 23.57756545, 2.08911198
10409, 23.46869554, 1.69619504
10410, 23.12013938, 1.79456638
10411, 23.34885241, 1.94183918
10412, 23.36877092, 1.31190175
10413, 23.81264982, 1.60253805
10414, 23.71272520, 1.21824476
10415, 23.59071037, 1.45721990
10416, 24.15539124, 1.50988065
10417, 23.90975612, 1.98814917
10418, 24.25249754, 1.89549177
10419, 24.03257368, 1.74901491
10420, 24.01916252, 2.36812719
10421, 23.68697185, 2.46909000
10422, 23.79836398, 2.22861958
10423, 37.03263378, 7.03437794
10424, 36.71862596, 7.24975676
10425, 36.92492547, 7.60857662
10426, 36.97877962, 7.32147728
10427, 36.59940015, 7.82760518
10428, 36.86782519, 7.90069547
10429, 36.40220337, 7.46250191
10430, 36.33663743, 7.74918444
10431, 36.52034448, 6.89459166
10432, 36.46127392, 7.17854679
10433, 22.65685476, 1.48036134
10434, 22.54726254, 1.07695408
10435, 22.18615795, 1.18218466
10436, 22.42150636, 1.33127300
10437, 22.45726285, 0.59607198
10438, 22.93489731, 0.99473390
10439, 22.69608008, 0.79540294
10440, 23.01726942, 1.38838139
10441, 23.15183411, 1.15331782
10442, 22.88849707, 1.63746386
10443, 33.43733215, -6.21633924
10444, 33.31088190, -5.81043211
10445, 33.55958422, -5.94106251
10446, 32.95210019, -5.95347027
10447, 32.82517723, -5.54946712
10448, 33.06802957, -5.67994961
10449, 32.59339724, -6.09216595
10450, 33.06940360, -6.35844932
10451, 32.83140042, -6.22530763
10452, 33.31248943, -6.49012397
10453, 40.65134029, -4.22318070
10454, 41.05084373, -3.83266681
10455, 41.43737840, -4.25124994
10456, 41.04435935, -4.23721532
10457, 41.84662224, -3.84771826
10458, 42.23981067, -4.27443153
10459, 41.83859454, -4.26284073
10460, 42.24863519, -3.43016344
10461, 41.44249894, -3.43130540
10462, 41.84556706, -3.43073442
10463, 40.65578919, -3.42587416
10464, 41.04914406, -3.42858978
10465, 28.20321167, 7.48667989
10466, 28.04402549, 6.84403249
10467, 27.81780890, 7.22097997
10468, 28.62750800, 6.72708946
10469, 28.47684207, 6.09570804
10470, 28.26043378, 6.46987027
10471, 29.25681918, 6.61016206
10472, 28.77695058, 7.37204233
10473, 29.40626177, 7.25511494
10474, 29.01688488, 6.99110220
10475, 28.95764290, 8.01725826
10476, 28.58042728, 7.75196908
10477, 45.37418833, 11.63661423
10478, 44.97910972, 12.08141070
10479, 45.39542750, 12.06830711
10480, 44.55519527, 11.69044718
10481, 44.15941888, 12.10903648
10482, 44.56926430, 12.09522359
10483, 44.12905272, 11.33096347
10484, 44.92317362, 11.24332922
10485, 44.49703107, 10.88384552
10486, 44.52611317, 11.28714635
10487, 45.30585257, 10.76633397
10488, 45.34002045, 11.20147410
10489, 25.15985735, 0.77835920
10490, 25.52960694, 0.58685354
10491, 25.34193742, 0.17437863
10492, 25.25089738, 0.47636891
10493, 25.69453562, -0.06384804
10494, 25.39259750, -0.16522679
10495, 25.95575160, 0.33638507
10496, 26.31251005, 0.05703654
10497, 26.00352283, -0.00340575
10498, 26.21324358, 0.85817704
10499, 25.78709892, 1.10864551
10500, 25.87142526, 0.72251529
10501, 34.03086158, -2.57824147
10502, 33.98029726, -2.18342386
10503, 34.42809895, -2.14027053
10504, 34.22948026, -2.35925600
10505, 33.93933384, -1.87519307
10506, 33.64668468, -2.22542838
10507, 33.60572126, -1.91719760
10508, 33.79300926, -2.05031073
10509, 33.25749431, -2.24440517
10510, 33.66209514, -2.62020001
10511, 33.27290476, -2.63917680
10512, 33.45979472, -2.43230259
10513, 33.69787580, -2.99453064
10514, 33.86436869, -2.78638606
10515, 40.50053313, 7.27966299
10516, 40.16647915, 7.63793835
10517, 40.52014372, 8.02412687
10518, 40.85419769, 7.66585151
10519, 40.51033842, 7.65189493
10520, 40.88617931, 8.47346028
10521, 40.15484553, 8.37029434
10522, 40.52051242, 8.42187731
10523, 39.84074886, 7.98201187
10524, 39.49578760, 8.30158905
10525, 39.82531656, 8.33594170
10526, 39.50028397, 7.60276896
10527, 39.82601426, 7.25869544
10528, 39.83338156, 7.62035366
10529, 31.14056458, 8.05234271
10530, 31.02735217, 7.65477302
10531, 30.90803889, 7.90882319
10532, 31.37634385, 7.51854919
10533, 31.13292343, 7.39155900
10534, 31.49610741, 7.92466766
10535, 31.85951336, 7.79522959
10536, 31.61792860, 7.65688939
10537, 31.61298618, 8.32919673
10538, 31.37677538, 8.19076972
10539, 33.90103649, 1.18780722
10540, 33.89927908, 0.74205843
10541, 33.45593886, 0.72214589
10542, 33.45769627, 1.16789468
10543, 33.67848768, 0.95497655
10544, 32.98533794, 0.76139389
10545, 33.40018097, 0.25323310
10546, 32.92958005, 0.29248110
10547, 33.19275946, 0.50731350
10548, 33.37717237, -0.30362565
10549, 33.90532595, 0.24890702
10550, 33.64124916, -0.02735932
10551, 34.44093262, 0.77727011
10552, 34.17312928, 0.51308856
10553, 34.68554480, -4.79746011
10554, 34.83345281, -5.20359660
10555, 34.44607565, -5.36371813
10556, 34.56581022, -5.08058912
10557, 34.58179335, -5.77256655
10558, 34.31952666, -5.64448204
10559, 34.98424565, -5.62073480
10560, 34.85037893, -5.90494667
10561, 35.23593823, -5.03921461
10562, 35.11009194, -5.32997471
10563, 32.13068891, 5.78708508
10564, 31.97493685, 5.32707833
10565, 31.54775011, 5.48713056
10566, 31.83921951, 5.63710782
10567, 31.82344968, 4.85842228
10568, 32.41233905, 5.17012654
10569, 32.11789436, 5.01427441
10570, 32.55622981, 5.64321770
10571, 32.99215665, 5.49250490
10572, 32.70224785, 5.33131572
10573, 32.69635575, 6.10659096
10574, 32.41352233, 5.94683802
10575, 34.75547229, 4.91020000
10576, 34.87950666, 5.40658987
10577, 35.33612938, 5.28406988
10578, 35.04580083, 5.09713494
10579, 35.40244355, 5.78012074
10580, 35.62711955, 5.50705936
10581, 35.00027131, 5.87803765
10582, 35.24628625, 6.04618968
10583, 34.44361675, 5.53583990
10584, 34.72194403, 5.70693878
10585, 36.33026691, 0.37167164
10586, 36.02080220, -0.05391155
10587, 35.61286739, 0.25674647
10588, 35.92233210, 0.68232966
10589, 35.97156715, 0.31420905
10590, 35.16448930, 0.59006425
10591, 35.30533057, -0.15890784
10592, 35.23490994, 0.21557821
10593, 35.67424764, -0.49088176
10594, 35.34275513, -0.86306434
10595, 35.32404285, -0.51098609
10596, 36.14156878, -0.87186928
10597, 36.48812334, -0.43489907
10598, 36.08118549, -0.46289041
10599, 37.62604101, -6.84463076
10600, 38.00015795, -6.57077012
10601, 38.27972259, -6.93606989
10602, 37.95288180, -6.89035033
10603, 38.66757775, -6.65776192
10604, 38.95861709, -7.03649188
10605, 38.61916984, -6.98628089
10606, 39.04150715, -6.35636986
10607, 38.35155222, -6.28068493
10608, 38.72548162, -5.97929287
10609, 38.69652969, -6.31852739
10610, 38.05980541, -5.92824199
10611, 37.70841113, -6.21832719
10612, 38.02998168, -6.24950606
10613, 39.35512403, -8.46125229
10614, 39.78038161, -8.22790131
10615, 40.01472424, -8.61430304
10616, 39.68492413, -8.53777767
10617, 40.21942279, -7.97857878
10618, 39.51995164, -7.82042589
10619, 39.95899283, -7.57110336
10620, 39.86968722, -7.89950233
10621, 39.25326622, -7.43188213
10622, 39.10671131, -8.07947287
10623, 39.17998877, -7.75567750
10624, 39.02478961, -8.39426025
10625, 31.20620911, -6.56461256
10626, 31.55582366, -6.45233150
10627, 31.65440023, -6.87540910
10628, 31.30478568, -6.98769016
10629, 31.43030467, -6.72001083
10630, 31.75958925, -7.29310437
10631, 32.00634853, -6.75245763
10632, 31.88296889, -7.02278100
10633, 31.89951958, -6.34234463
10634, 32.24739153, -6.22050648
10635, 32.12687003, -6.48648206
10636, 31.80020977, -5.93080916
10637, 31.45651385, -6.04079603
10638, 31.67801671, -6.19157033
10639, 37.08171426, 9.55172191
10640, 37.45116394, 9.34104707
10641, 37.24509443, 8.94666025
10642, 37.16340435, 9.24919108
10643, 37.59207191, 8.71548056
10644, 37.30570235, 8.64074090
10645, 37.84580139, 9.10085772
10646, 37.89501548, 8.77729347
10647, 37.70081827, 9.80109604
10648, 37.77330983, 9.45097688
10649, 34.22503956, -3.64929427
10650, 33.88138142, -3.76584477
10651, 33.77387889, -3.39525493
10652, 33.99945923, -3.52227460
10653, 33.51352902, -3.90090620
10654, 34.00986138, -4.16322317
10655, 33.76169520, -4.03206468
10656, 34.37576707, -4.00856166
10657, 34.52198127, -4.39957987
10658, 34.26592132, -4.28140152
10659, 34.71158978, -3.84717057
10660, 34.46831467, -3.74823242
10661, 32.44208237, -3.26690632
10662, 32.90771912, -3.13696793
10663, 33.01266950, -3.60806145
10664, 32.54703275, -3.73799985
10665, 32.72737593, -3.43748389
10666, 33.12861553, -4.02685271
10667, 33.39758299, -3.48211494
10668, 33.26309926, -3.75448382
10669, 33.32157990, -3.08139065
10670, 33.54772940, -3.23832279
10671, 32.85904397, -2.69475407
10672, 33.09031194, -2.88807236
10673, 25.04858832, -2.31485105
10674, 25.04544107, -1.88180583
10675, 25.42024620, -1.89132391
10676, 25.42339345, -2.32436912
10677, 25.23441726, -2.10308748
10678, 25.87485566, -1.88976277
10679, 25.40603008, -1.42002306
10680, 25.64044287, -1.65489292
10681, 24.98937787, -1.45432076
10682, 24.94267221, -0.93834198
10683, 25.17435114, -1.17918252
10684, 24.61273260, -1.50415332
10685, 24.66879579, -1.93163840
10686, 24.82908683, -1.69297958
10687, 31.38031441, 5.02102774
10688, 30.94232025, 5.19648392
10689, 31.10975594, 5.66258673
10690, 31.24503518, 5.34180724
10691, 30.48747737, 5.37276472
10692, 30.77273618, 4.71047943
10693, 30.31789330, 4.88676024
10694, 30.63010677, 5.04162208
10695, 30.61757616, 4.23241520
10696, 31.22418524, 4.55219441
10697, 31.06902522, 4.07413017
10698, 30.92088070, 4.39230480
10699, 31.66732050, 4.38958895
10700, 31.52381746, 4.70530835
10701, 42.97846860, -9.62239640
10702, 43.37468467, -9.89316933
10703, 43.08632996, -10.33351040
10704, 42.69011389, -10.06273747
10705, 43.03239928, -9.97795340
10706, 42.75682976, -10.74686463
10707, 43.44365262, -10.63408155
10708, 43.11415242, -11.04743577
10709, 43.10024119, -10.69047309
10710, 43.83684304, -10.95943005
10711, 43.80008055, -10.19304748
10712, 44.19327098, -10.51839598
10713, 43.81846180, -10.57623876
10714, 44.12545205, -9.72712177
10715, 43.70005616, -9.42724362
10716, 43.75006836, -9.81014555
10717, 20.89215622, 2.27012233
10718, 20.42897624, 2.54109627
10719, 20.71969217, 2.97778942
10720, 21.18287216, 2.70681548
10721, 20.80592420, 2.62395587
10722, 20.99358945, 3.40027717
10723, 20.27632321, 3.19181977
10724, 20.63495633, 3.29604847
10725, 20.01068913, 2.77269748
10726, 19.91995448, 3.09486004
10727, 20.16582538, 2.13394264
10728, 20.08825726, 2.45332006
10729, 43.48203847, 2.61984887
10730, 43.06327982, 3.04802042
10731, 43.51021695, 3.52685074
10732, 43.49612771, 3.07334981
10733, 43.08973839, 3.93488131
10734, 43.51779129, 4.41607349
10735, 43.51400412, 3.97146212
10736, 42.68916548, 4.33853301
10737, 42.66663974, 3.47673215
10738, 42.67790261, 3.90763258
10739, 42.61793407, 2.59372325
10740, 42.64228691, 3.03522770
10741, 29.39296810, -6.61912837
10742, 29.72625694, -6.51569365
10743, 29.80976009, -6.96004409
10744, 29.60136409, -6.78958623
10745, 30.07357874, -6.41888072
10746, 29.63752353, -6.06622652
10747, 29.85555113, -6.24255362
10748, 29.28229782, -6.16505878
10749, 29.18569215, -5.70244036
10750, 29.41160784, -5.88433344
10751, 28.94628597, -6.29274411
10752, 29.16962703, -6.45593624
10753, 16.97871957, -1.01335063
10754, 17.41138842, -1.54022908
10755, 16.93266886, -2.02687845
10756, 16.95569421, -1.52011454
10757, 17.30588644, -2.54683343
10758, 16.90294322, -2.52341672
10759, 17.78835397, -2.11497505
10760, 18.10212028, -2.62800655
10761, 17.70400336, -2.58741999
10762, 18.38670439, -1.63336033
10763, 18.00973885, -1.05861436
10764, 17.89904641, -1.58679470
10765, 31.62489378, -8.26604346
10766, 31.98387191, -8.12315886
10767, 32.10072313, -8.53588610
10768, 31.86280845, -8.40096478
10769, 32.45947711, -8.38849381
10770, 32.34040143, -8.66328430
10771, 32.34055314, -7.98775098
10772, 32.57871584, -8.11779152
10773, 31.86803514, -7.71412156
10774, 32.10429414, -7.85093627
10775, 43.50550231, -2.97366812
10776, 43.07336696, -2.53733378
10777, 43.49794657, -2.07085291
10778, 43.50172444, -2.52226052
10779, 43.05014839, -1.63937166
10780, 43.47283290, -1.15542351
10781, 43.48538974, -1.61313821
10782, 42.60547638, -1.22900866
10783, 42.64713528, -2.11752631
10784, 42.62630583, -1.67326748
10785, 42.66405768, -2.99459966
10786, 42.65559648, -2.55606298
10787, 27.92092747, -5.51950303
10788, 28.32483708, -5.40661638
10789, 28.45099931, -5.93843221
10790, 28.04708970, -6.05131887
10791, 28.18596339, -5.72896762
10792, 28.58159332, -6.42919918
10793, 28.81569196, -5.80197714
10794, 28.69864264, -6.11558816
10795, 28.71676717, -5.32234847
10796, 28.95122966, -5.51239441
10797, 28.23099291, -4.90388952
10798, 28.47388004, -5.11311899
10799, 44.47624860, -9.23465588
10800, 44.91780057, -9.56036725
10801, 44.56700402, -10.05283315
10802, 44.52162631, -9.64374451
10803, 44.98205660, -10.40366911
10804, 44.60832356, -10.86923194
10805, 44.58766379, -10.46103254
10806, 45.41303860, -10.78062719
10807, 45.37418660, -9.91639539
10808, 45.39361260, -10.34851129
10809, 45.29737804, -9.04351825
10810, 45.33578232, -9.47995682
10811, 42.48539297, -8.08199363
10812, 43.06296355, -8.37449020
10813, 42.77706560, -8.89800958
10814, 42.19949503, -8.60551300
10815, 42.63122929, -8.49000160
10816, 42.52120138, -9.37514602
10817, 43.23433282, -9.14525995
10818, 42.87776710, -9.26020299
10819, 43.53669566, -8.65847940
10820, 44.00241901, -8.94046307
10821, 43.61837591, -9.04286151
10822, 43.84906938, -8.17753780
10823, 43.37533727, -7.89354860
10824, 43.45601647, -8.27601400
10825, 37.89548539, -9.87246240
10826, 37.67537833, -9.42670934
10827, 38.11551666, -9.20524703
10828, 38.00550102, -9.53885472
10829, 37.87900261, -8.81927586
10830, 38.20384174, -8.89077994
10831, 37.48548420, -9.04790083
10832, 37.57042679, -8.74712977
10833, 37.26964209, -9.62828479
10834, 37.37756315, -9.33809281
10835, 41.21380750, 10.63834754
10836, 40.94180865, 10.94045264
10837, 41.21323880, 10.93171400
10838, 40.68598328, 10.64552127
10839, 40.67602004, 10.93370298
10840, 40.94722268, 10.38341696
10841, 40.69743179, 10.37292449
10842, 41.20058752, 10.36360594
10843, 16.97463063, 1.03916647
10844, 17.46697947, 0.55442082
10845, 16.99234884, 0.01525435
10846, 16.98348973, 0.52721041
10847, 17.47106841, -0.49809628
10848, 16.98553420, -0.49904814
10849, 17.97214918, 0.05018406
10850, 18.51081962, -0.51033402
10851, 17.99094401, -0.50421515
10852, 18.49373591, 0.64080737
10853, 17.98856619, 1.14504413
10854, 17.98035769, 0.59761409
10855, 17.40368315, 1.57979380
10856, 17.77550690, 2.15422110
10857, 17.88203654, 1.64963261
10858, 17.30227011, 2.56058231
10859, 17.69757982, 2.60704302
10860, 16.92905252, 2.04062733
10861, 16.90113505, 2.53029115
10862, 16.95184157, 1.53989690
10863, 43.07596720, -3.41979531
10864, 42.66054471, -3.85535908
10865, 42.66230119, -3.42497937
10866, 43.05848209, -4.28773896
10867, 42.64914638, -4.28108524
10868, 43.49408984, -3.86041263
10869, 43.47760858, -4.29766203
10870, 43.49979607, -3.41704037
10871, 40.39126192, -7.29007394
10872, 40.85528145, -7.00111940
10873, 41.15905581, -7.45960126
10874, 40.69503629, -7.74855580
10875, 40.77515887, -7.37483760
10876, 41.53098267, -8.01583863
10877, 41.66467232, -7.12167803
10878, 42.03659918, -7.67791540
10879, 41.59782750, -7.56875833
10880, 42.11408416, -6.75617962
10881, 41.29505944, -6.67074339
10882, 41.70457180, -6.71346151
10883, 40.51217120, -6.55806214
10884, 40.90361532, -6.61440277
10885, 39.72523767, 5.77556720
10886, 40.05661395, 5.39110474
10887, 39.66922089, 5.00866844
10888, 39.33784460, 5.39313090
10889, 39.69722928, 5.39211782
10890, 39.27409350, 4.62076237
10891, 40.00472806, 4.61711379
10892, 39.63941078, 4.61893808
10893, 40.39962619, 5.01514369
10894, 40.74580723, 4.62753143
10895, 40.37526764, 4.62232261
10896, 40.78195395, 5.40890004
10897, 40.43894171, 5.78486109
10898, 40.41928395, 5.40000239
10899, 35.04217952, -7.40140833
10900, 35.41437686, -7.30559697
10901, 35.26212626, -7.53739674
10902, 35.36092757, -6.88301390
10903, 35.62728473, -7.05868015
10904, 34.94438829, -7.01144785
10905, 35.09884601, -6.74025713
10906, 34.79647168, -7.26918915
10907, 38.80606559, -2.21709599
10908, 38.47167587, -1.85092496
10909, 38.81490082, -1.86717552
10910, 38.11217031, -2.14549121
10911, 37.81194007, -1.77202930
10912, 38.14180797, -1.81147713
10913, 37.72218251, -2.45738778
10914, 38.42885987, -2.55824107
10915, 38.03887207, -2.87013764
10916, 38.07552119, -2.50781443
10917, 38.77138919, -2.95395910
10918, 38.78872739, -2.58552755
10919, 29.21762117, 4.67138054
10920, 29.69418270, 4.54096618
10921, 29.56031450, 4.02416310
10922, 29.38896783, 4.34777182
10923, 30.01815816, 3.89580043
10924, 29.72479678, 3.71587745
10925, 30.16195717, 4.38070959
10926, 30.31786716, 4.06410781
10927, 29.85011883, 5.04701682
10928, 30.00603800, 4.71386321
10929, 43.01436722, 2.13467865
10930, 42.53708072, 1.68218558
10931, 42.57750740, 2.13795441
10932, 42.96641603, 1.18854266
10933, 42.40733297, 0.67695570
10934, 42.47220685, 1.17957064
10935, 43.41569088, 0.73434994
10936, 43.44048572, 1.68838216
10937, 43.42808830, 1.21136605
10938, 43.46126209, 2.15411551
10939, 29.36702241, 5.22905752
10940, 29.55233952, 5.76766706
10941, 30.03543595, 5.58562636
10942, 29.70122918, 5.40734194
10943, 29.78921681, 6.41189455
10944, 29.01994189, 5.96593457
10945, 29.40457935, 6.18891456
10946, 28.86725250, 5.36308259
10947, 28.32415268, 5.49285606
10948, 28.67204728, 5.72939532
10949, 28.71785126, 4.80540561
10950, 29.04243683, 5.01723157
10951, 22.25848173, 0.19785443
10952, 21.84398252, 0.41678979
10953, 22.04276363, 0.81500733
10954, 22.15062268, 0.50643088
10955, 21.70227267, 0.96248487
10956, 21.94421531, 1.07233476
10957, 21.51483496, 0.62672824
10958, 21.45046669, 0.89011952
10959, 21.63307971, 0.07548136
10960, 21.57395734, 0.35110480
10961, 26.48808571, -2.98810897
10962, 26.12949991, -2.91872950
10963, 26.17391487, -2.48334630
10964, 26.33100029, -2.73572763
10965, 25.79250867, -2.38921774
10966, 26.02438526, -2.18655454
10967, 25.75246685, -2.83512763
10968, 25.38335163, -2.77027901
10969, 25.58793015, -2.57974838
10970, 25.70123665, -3.30043772
10971, 26.07826972, -3.38403959
10972, 25.91536828, -3.10958361
10973, 25.00680687, 2.19017314
10974, 24.66819307, 2.20855251
10975, 24.69224124, 2.59677028
10976, 25.03085505, 2.57839091
10977, 24.84952406, 2.39347171
10978, 24.73561998, 2.88496741
10979, 24.42534137, 2.63468821
10980, 24.46872011, 2.92288535
10981, 24.58048067, 2.75982781
10982, 24.11720902, 2.72396819
10983, 24.32729487, 2.27884721
10984, 24.22225194, 2.50140770
10985, 24.59339574, 1.82519707
10986, 24.46034530, 2.05202214
10987, 42.96377369, 0.22556495
10988, 42.53153071, -0.31759209
10989, 41.97508999, 0.13379867
10990, 42.46943184, 0.17968181
10991, 42.13070812, -0.82525388
10992, 43.00629897, -0.72134687
10993, 42.56850354, -0.77330037
10994, 43.43580326, -0.22078780
10995, 43.45431808, -0.68810566
10996, 43.42574707, 0.25678107
10997, 43.92409838, 9.83851428
10998, 44.37549544, 10.08798307
10999, 44.62581864, 9.60361206
11000, 44.27495851, 9.72106317
11001, 45.17335951, 9.88158393
11002, 45.04088376, 9.41346007
11003, 44.81893071, 10.40451150
11004, 45.23960604, 10.32395895
11005, 44.05359580, 10.56731708
11006, 44.43626325, 10.48591429
11007, 43.01831457, 11.78621570
11008, 43.37294256, 11.40701245
11009, 43.03128086, 11.08692886
11010, 43.02479772, 11.43657228
11011, 43.73828245, 10.99512822
11012, 43.76371283, 11.74284770
11013, 43.75099764, 11.36898796
11014, 43.35429395, 12.13381122
11015, 43.75685641, 12.12142385
11016, 42.96749062, 12.14310785
11017, 24.50646195, -1.09644552
11018, 24.37035068, -0.66249829
11019, 24.65651145, -0.80042014
11020, 23.98479659, -0.82606236
11021, 23.81527004, -0.36817615
11022, 24.09281036, -0.51533722
11023, 23.63794463, -0.98496919
11024, 24.13761165, -1.20599906
11025, 23.88777814, -1.09548413
11026, 24.37517212, -1.35507619
11027, 30.63851703, 0.71465396
11028, 30.16382123, 0.81923017
11029, 30.27719952, 1.30009738
11030, 30.45785827, 1.00737567
11031, 29.82627969, 1.43044712
11032, 30.11858148, 1.59852128
11033, 29.65119061, 0.96921096
11034, 29.20839360, 1.14147660
11035, 29.51733665, 1.28596186
11036, 29.48033107, 0.39428855
11037, 29.99296168, 0.24430775
11038, 29.82207615, 0.60675936
11039, 42.50054094, -7.17041202
11040, 42.94933473, -7.57449024
11041, 42.49296696, -7.62620282
11042, 43.30260455, -7.13777154
11043, 43.33897091, -7.51566007
11044, 42.93295289, -6.76662333
11045, 43.31893565, -6.75935058
11046, 42.52351853, -6.76140148
11047, 39.01207262, 5.79364510
11048, 38.71118204, 6.18246303
11049, 39.10294831, 6.53936000
11050, 39.40383889, 6.15054207
11051, 39.05751046, 6.16650255
11052, 39.46527583, 6.88696471
11053, 38.81169901, 6.89931410
11054, 39.17402653, 7.24691881
11055, 39.13848742, 6.89313941
11056, 38.56865907, 7.24712027
11057, 38.47052110, 6.60284569
11058, 38.51959009, 6.92498298
11059, 38.24292855, 5.86662558
11060, 38.35672483, 6.23473563
11061, 26.26634921, 2.24163485
11062, 26.22444204, 2.73251954
11063, 26.64453317, 2.78597406
11064, 26.45544119, 2.51380445
11065, 26.17929804, 3.24085188
11066, 25.79902054, 2.66799727
11067, 25.75387655, 3.17632962
11068, 25.98915929, 2.95442458
11069, 25.38740970, 2.63731406
11070, 25.81844159, 2.18600206
11071, 25.40683075, 2.15531885
11072, 25.60292564, 2.41165806
11073, 25.87622903, 1.61162076
11074, 26.07128912, 1.92662780
11075, 36.04208707, -3.57109617
11076, 36.47201802, -3.32420569
11077, 36.72801371, -3.78452713
11078, 36.29808276, -4.03141761
11079, 36.38505039, -3.67781165
11080, 37.03376169, -4.33426363
11081, 37.19872780, -3.50636405
11082, 37.50447579, -4.05610054
11083, 37.11624475, -3.92031384
11084, 37.62401279, -3.20549247
11085, 36.89089878, -3.04298875
11086, 37.31618376, -2.74211718
11087, 37.25745578, -3.12424061
11088, 36.60136077, -2.58699936
11089, 36.18248001, -2.86821630
11090, 36.53668939, -2.95560253
11091, 27.54638861, 3.30882934
11092, 27.08308987, 3.31841972
11093, 27.10627316, 3.85308270
11094, 27.56957191, 3.84349232
11095, 27.32633089, 3.58095602
11096, 27.11012650, 4.42977170
11097, 26.61340248, 3.83803912
11098, 26.61725582, 4.41472811
11099, 26.86176449, 4.13390541
11100, 26.15226681, 3.78309753
11101, 26.64043371, 3.29579347
11102, 26.39635026, 3.53944550
11103, 27.08718932, 2.80860032
11104, 26.86381152, 3.05219689
11105, 18.59861745, -2.28456084
11106, 18.85832979, -2.79601426
11107, 18.48022504, -2.71201041
11108, 19.34469414, -2.50549706
11109, 19.22222567, -2.88211857
11110, 19.14178736, -2.02714266
11111, 19.47941591, -2.15133486
11112, 18.76424587, -1.83025149
11113, 21.68121378, 3.67599419
11114, 21.41615770, 3.22679890
11115, 21.33740162, 3.53813568
11116, 21.86188844, 3.06702476
11117, 21.52238030, 2.88692012
11118, 22.06082125, 3.51225477
11119, 22.45072842, 3.37427989
11120, 22.15630843, 3.22065233
11121, 22.33410242, 3.95877799
11122, 22.00765810, 3.81738609
11123, 24.39619500, -2.36881206
11124, 24.47819480, -2.71438383
11125, 24.18079082, -2.79357611
11126, 24.28849291, -2.58119409
11127, 24.50964508, -2.99252303
11128, 24.73388105, -2.68896327
11129, 24.76533133, -2.96710247
11130, 24.62176307, -2.84074315
11131, 25.05516357, -2.69156213
11132, 24.72730580, -2.31225218
11133, 24.89123468, -2.50190716
11134, 24.53249540, -2.15022523
11135, 44.27818332, 6.30505345
11136, 44.74035817, 5.92817943
11137, 44.34302328, 5.40728997
11138, 43.88084844, 5.78416399
11139, 44.31060330, 5.85617171
11140, 43.92569861, 4.90271660
11141, 44.78872543, 5.00995436
11142, 44.35721202, 4.95633548
11143, 45.21899566, 5.52649703
11144, 45.23313528, 5.06235323
11145, 45.16068953, 6.46316037
11146, 45.18984259, 5.99482870
11147, 39.11284130, -4.13704983
11148, 39.50236104, -3.77091187
11149, 39.87825217, -4.18125399
11150, 39.48873243, -4.54739195
11151, 39.49554673, -4.15915191
11152, 40.25851601, -4.59686233
11153, 40.27107645, -3.80757236
11154, 40.26479623, -4.20221734
11155, 39.88726212, -3.40369238
11156, 40.27152566, -3.41478327
11157, 39.12977686, -3.36768752
11158, 39.50851949, -3.38568995
11159, 45.00671954, -11.24343520
11160, 44.60635499, -11.68477303
11161, 44.20795901, -11.31056977
11162, 44.60733928, -11.27700248
11163, 44.18461993, -12.10343221
11164, 45.00506840, -12.08134082
11165, 44.59484416, -12.09238651
11166, 45.42186737, -11.64113148
11167, 45.41926702, -12.07056574
11168, 45.41745298, -11.21087933
11169, 42.32875642, -9.82791078
11170, 41.90619044, -9.64871365
11171, 42.09863539, -9.19594889
11172, 42.21369591, -9.51192983
11173, 41.58424117, -9.11672264
11174, 41.68510081, -8.52628675
11175, 41.89186810, -8.86111782
11176, 41.18920900, -9.10766580
11177, 41.56278221, -9.52181688
11178, 41.37599560, -9.31474134
11179, 41.76765257, -10.02535956
11180, 41.66521739, -9.77358822
11181, 37.24914286, -7.11405515
11182, 36.98113437, -6.74765758
11183, 37.35803252, -6.47823320
11184, 37.30358769, -6.79614417
11185, 37.10948838, -6.12856113
11186, 37.40894975, -6.17344416
11187, 36.72974382, -6.34612365
11188, 36.82013953, -6.04513901
11189, 36.53770681, -7.03852276
11190, 36.63372531, -6.69232321
11191, 25.37097381, 1.70933806
11192, 24.97094994, 1.74419236
11193, 25.18889034, 1.94975560
11194, 24.88898440, 1.32965528
11195, 24.51143020, 1.41065999
11196, 24.74119007, 1.57742618
11197, 24.76699805, 0.90165166
11198, 25.28184370, 1.20636281
11199, 25.02442087, 1.05400724
11200, 25.57903636, 1.40899179
11201, 35.21445875, 3.14453863
11202, 34.76482913, 3.28298088
11203, 34.91321951, 3.77841856
11204, 35.06383913, 3.46147859
11205, 34.46382686, 3.92281553
11206, 34.61501375, 4.42081999
11207, 34.76411663, 4.09961928
11208, 34.02024348, 4.08131448
11209, 34.30364928, 3.43457381
11210, 34.16194638, 3.75794415
11211, 34.59237491, 2.73550359
11212, 34.44801209, 3.08503870
11213, 41.16052294, 5.82006080
11214, 41.52066827, 5.45466873
11215, 41.14209928, 5.04350797
11216, 41.15131111, 5.43178439
11217, 41.50477601, 4.66143790
11218, 41.12529162, 4.64448466
11219, 41.90236609, 5.09824042
11220, 42.28438061, 4.71815516
11221, 41.89457831, 4.68979653
11222, 42.27720075, 5.53167438
11223, 41.89550293, 5.88810269
11224, 41.89893451, 5.49317156
11225, 43.09049231, 4.80087654
11226, 43.49839964, 5.28751965
11227, 43.50809546, 4.85179657
11228, 43.06042632, 5.64461960
11229, 43.44287512, 6.14126394
11230, 43.47063738, 5.71439179
11231, 42.65191963, 5.99579530
11232, 42.68570744, 5.18049869
11233, 42.66881354, 5.58814699
11234, 42.68743646, 4.75951585
11235, 27.65821042, -3.45118029
11236, 28.06095907, -3.41721840
11237, 28.10428426, -3.90496215
11238, 27.70153560, -3.93892404
11239, 27.88124734, -3.67807122
11240, 28.15763886, -4.39015388
11241, 28.50135353, -3.85655866
11242, 28.32949620, -4.12335627
11243, 28.46299381, -3.38555025
11244, 28.85468889, -3.35112211
11245, 28.67802121, -3.60384038
11246, 28.42566816, -2.90418020
11247, 28.02363342, -2.93584836
11248, 28.24331361, -3.16069930
11249, 34.16734863, 4.56460048
11250, 34.30780718, 5.05398049
11251, 34.46141046, 4.73740024
11252, 33.86752674, 5.19899575
11253, 34.00333631, 5.68085516
11254, 34.15557174, 5.36741783
11255, 33.42899368, 5.34750604
11256, 33.72565808, 4.71742175
11257, 33.57732588, 5.03246390
11258, 33.87295078, 4.39936812
11259, 32.23370499, -0.49517641
11260, 32.68688344, -0.67145960
11261, 32.47189191, -1.16995586
11262, 32.35279845, -0.83256614
11263, 33.23642118, -0.80581792
11264, 32.82763463, -0.16926733
11265, 33.03202790, -0.48754263
11266, 32.35801307, -0.07563007
11267, 32.64379656, 0.10842552
11268, 32.08046395, -0.22342330
11269, 24.26437553, 3.08505623
11270, 24.43855511, 3.36704932
11271, 24.64289969, 3.20487843
11272, 24.45363761, 3.14496733
11273, 24.71448403, 3.79719141
11274, 24.14492842, 3.60805824
11275, 24.42970623, 3.70262482
11276, 23.96918272, 3.21562572
11277, 23.64925276, 3.36966002
11278, 23.89709059, 3.48885913
11279, 23.82201621, 2.85453768
11280, 24.04319587, 2.96979696
11281, 23.70309536, -3.40853786
11282, 24.02005702, -3.26625738
11283, 24.17570529, -3.64999035
11284, 23.93940032, -3.52926410
11285, 24.46561380, -3.42381590
11286, 24.72097875, -3.84730892
11287, 24.44834202, -3.74864964
11288, 24.66681981, -3.27109013
11289, 24.30843907, -3.14524880
11290, 24.48762944, -3.20816946
11291, 23.89240877, -2.91458468
11292, 24.10042392, -3.02991674
11293, 44.48591158, 7.74453942
11294, 44.15166483, 7.19699185
11295, 43.60540609, 7.53581080
11296, 44.04565883, 7.64017511
11297, 43.78566880, 6.65096539
11298, 44.64417935, 6.85107991
11299, 44.21492408, 6.75102265
11300, 45.04908678, 7.41681406
11301, 45.10488815, 6.93998722
11302, 44.95101365, 7.91931285
11303, 23.19728643, -0.27349867
11304, 22.83702748, -0.54512534
11305, 22.57102298, -0.12141349
11306, 22.88415471, -0.19745608
11307, 22.49652047, -0.88327846
11308, 23.10956926, -0.87340786
11309, 22.80304486, -0.87834316
11310, 23.42880472, -0.64621088
11311, 23.37375694, -0.92918853
11312, 23.50627824, -0.32083741
11313, 27.68735624, 4.98268901
11314, 27.63371679, 4.39090122
11315, 27.39874137, 4.70623036
11316, 28.11942182, 4.34166823
11317, 27.84449686, 4.09258027
11318, 28.22291744, 4.89633267
11319, 28.41863654, 4.57353692
11320, 28.00575446, 5.23777254
11321, 30.87573224, 6.31300660
11322, 30.50640324, 6.52987025
11323, 30.79373660, 6.62280877
11324, 30.23710405, 6.07532625
11325, 30.14781003, 6.47088240
11326, 30.68914547, 5.86246461
11327, 30.36229071, 5.72404548
11328, 30.99274409, 5.98779667
11329, 31.37172355, 3.46247923
11330, 31.81280701, 3.32480800
11331, 31.67375823, 2.87022057
11332, 31.52274089, 3.16634990
11333, 32.24972585, 3.17598909
11334, 31.95975816, 3.77517926
11335, 32.10474200, 3.47558418
11336, 31.51707370, 3.92840919
11337, 31.81353933, 4.08238410
11338, 31.22037438, 3.76830470
11339, 27.86480713, 0.02928604
11340, 28.20229013, 0.57288236
11341, 28.67807072, 0.23733199
11342, 28.27143893, 0.13330901
11343, 28.95918366, 0.71868793
11344, 29.07920089, 0.31581027
11345, 28.54329359, 0.98197135
11346, 28.87584359, 1.06172398
11347, 27.76944933, 0.98588864
11348, 28.15637146, 0.98392999
11349, 28.41115401, -2.42049925
11350, 28.82629453, -2.41135141
11351, 28.84080867, -2.89503236
11352, 28.62598134, -2.65776580
11353, 29.23088038, -2.88612508
11354, 29.04278463, -3.11862360
11355, 29.24215736, -2.46689059
11356, 29.42061710, -2.68725829
11357, 28.88665059, -1.88905523
11358, 29.06440397, -2.17797291
11359, 41.84785288, -11.19333697
11360, 42.10290449, -11.49044569
11361, 41.78600810, -11.82235392
11362, 41.81693049, -11.50784544
11363, 42.01441553, -12.14585088
11364, 41.73661648, -12.14352767
11365, 42.38628236, -11.80167758
11366, 42.60094179, -12.14406051
11367, 42.30767866, -12.14495569
11368, 42.73492358, -11.43920379
11369, 42.45154571, -11.12797190
11370, 42.41891404, -11.46482474
11371, 31.97712537, 2.30555155
11372, 32.40182321, 2.19578124
11373, 32.28700472, 1.76812032
11374, 32.13206504, 2.03683594
11375, 32.80463103, 2.07186108
11376, 32.53057537, 2.60465305
11377, 32.66760320, 2.33825707
11378, 32.10694203, 2.74503710
11379, 32.39015061, 2.89032107
11380, 31.82544180, 2.58788606
11381, 41.20699054, 8.03030185
11382, 41.53219348, 7.66869077
11383, 41.17940063, 7.30424043
11384, 41.19319559, 7.66727114
11385, 41.84193483, 7.34565544
11386, 41.85523964, 8.00296257
11387, 41.84858723, 7.67430901
11388, 41.59750867, 8.36202212
11389, 41.95527852, 8.63791401
11390, 41.90525908, 8.32043829
11391, 41.27669744, 8.80518054
11392, 41.24184399, 8.41774120
11393, 39.08539081, -5.64447508
11394, 39.47220249, -5.30867870
11395, 39.82429686, -5.71262906
11396, 39.43748519, -6.04842544
11397, 39.45484384, -5.67855207
11398, 40.18123102, -6.13575688
11399, 40.23130827, -5.37327976
11400, 40.20626965, -5.75451832
11401, 39.85940703, -4.95452300
11402, 40.24491214, -4.98507104
11403, 39.10152789, -4.90154764
11404, 39.48046746, -4.92803532
11405, 32.61830375, 1.26016643
11406, 33.05529322, 1.19706723
11407, 32.80182085, 1.01078016
11408, 33.09787896, 1.60015360
11409, 33.27778762, 1.38402414
11410, 32.71059357, 1.68205298
11411, 32.95125500, 1.83600734
11412, 32.45265424, 1.51414338
11413, 20.52468876, 1.89753661
11414, 20.25498469, 1.52905416
11415, 20.21040503, 1.83149840
11416, 20.57834211, 1.28082495
11417, 20.27914544, 1.23172981
11418, 20.84097536, 1.60411734
11419, 20.85814013, 1.31900259
11420, 20.86656579, 1.93711983
11421, 27.51806989, 2.80276056
11422, 27.50266552, 2.31629308
11423, 27.29492742, 2.56244670
11424, 27.93819809, 2.31589251
11425, 27.72025700, 2.04184664
11426, 27.96180258, 2.77936220
11427, 28.15751792, 2.53776364
11428, 27.75409559, 3.04409577
11429, 38.10563696, 3.52001442
11430, 38.39552488, 3.08669644
11431, 38.00578265, 3.11878944
11432, 38.80695781, 3.46840279
11433, 38.76742860, 3.07715470
11434, 38.48457263, 3.86488088
11435, 38.88515114, 4.23985585
11436, 38.84605448, 3.85412932
11437, 38.19341317, 4.24786603
11438, 38.14952506, 3.88394023
11439, 33.38266188, 7.00999241
11440, 32.92030067, 7.04115523
11441, 32.95773881, 7.49602362
11442, 33.17020034, 7.25300802
11443, 32.60073219, 7.56853889
11444, 32.66059184, 7.96282430
11445, 32.80916532, 7.72942396
11446, 32.21811765, 7.67519300
11447, 32.50492696, 7.14866381
11448, 32.36152231, 7.41192841
11449, 32.81901647, 6.58774566
11450, 32.66197172, 6.86820473
11451, 32.90994857, -4.59560114
11452, 32.76481779, -4.17877458
11453, 33.01928205, -4.31122692
11454, 32.41933385, -4.37722014
11455, 32.48318330, -4.05760999
11456, 32.56381922, -4.74732349
11457, 32.24968541, -4.90703427
11458, 32.33450963, -4.64212721
11459, 32.70289855, -5.15081747
11460, 32.80642356, -4.87320931
11461, 36.49817334, -4.47992956
11462, 36.06064232, -4.68163233
11463, 35.86055173, -4.23312038
11464, 36.17936254, -4.35652497
11465, 35.63660746, -4.85751895
11466, 36.22593293, -5.11308278
11467, 35.93127020, -4.98530087
11468, 36.64366530, -4.96370659
11469, 36.50458006, -5.25053747
11470, 36.83871350, -4.64898511
11471, 35.01829706, 1.52859614
11472, 34.71324815, 1.43004949
11473, 34.62196211, 1.78830779
11474, 34.92701102, 1.88685444
11475, 34.82012959, 1.65845196
11476, 34.52444370, 2.26816699
11477, 34.22934028, 1.69229310
11478, 34.37689199, 1.98023004
11479, 34.29346434, 1.27197020
11480, 34.06518839, 1.44005016
11481, 34.86071643, 0.93534940
11482, 34.57709039, 1.10365980
11483, 37.85805934, 4.62470961
11484, 38.21993824, 5.01391311
11485, 38.55529208, 4.63706953
11486, 38.20667571, 4.63088957
11487, 38.94423444, 5.01797606
11488, 38.91469279, 4.62891595
11489, 38.61846245, 5.41849025
11490, 38.97815353, 5.40581058
11491, 37.84440434, 5.46204843
11492, 38.23143340, 5.44026934
11493, 36.60492987, 5.56532974
11494, 37.08233023, 5.26056042
11495, 36.80654387, 4.76233546
11496, 36.70573687, 5.16383260
11497, 37.20280762, 4.52627212
11498, 36.89004551, 4.41557232
11499, 37.50231587, 4.94019728
11500, 37.53043348, 4.57549086
11501, 37.42441870, 5.78241158
11502, 37.46336728, 5.36130443
11503, 33.56514033, 5.83406904
11504, 33.70337572, 6.32278806
11505, 33.85335601, 6.00182161
11506, 33.25096402, 6.46022260
11507, 33.54301880, 6.66639024
11508, 33.12830330, 5.97906790
11509, 32.97365988, 6.28340678
11510, 33.27864849, 5.66328697
11511, 19.70540958, 0.17900162
11512, 19.35090510, 0.51390999
11513, 19.69502256, 0.53664775
11514, 18.89820964, 0.09855390
11515, 18.92232050, 0.57735868
11516, 19.39436676, -0.27244792
11517, 18.95259319, -0.39139097
11518, 19.78325332, -0.21277341
11519, 23.57238727, -3.02150884
11520, 23.46128322, -2.65216547
11521, 23.67684600, -2.78337508
11522, 23.12165227, -2.73638907
11523, 23.03044486, -2.35974812
11524, 23.24586404, -2.50595679
11525, 22.76228338, -2.83879941
11526, 23.23891961, -3.14199850
11527, 22.87955073, -3.24440884
11528, 23.00060150, -2.99039895
11529, 23.36962769, -3.52902752
11530, 23.47100748, -3.27526818
11531, 43.37710789, -12.12513939
11532, 43.81172782, -11.72857159
11533, 43.78086391, -12.11428580
11534, 43.44061185, -11.37743188
11535, 43.82428543, -11.34400082
11536, 43.06138301, -11.76919989
11537, 43.08776771, -11.40831783
11538, 42.98902484, -12.13459995
11539, 22.79879956, 3.23155474
11540, 23.15707318, 3.10733112
11541, 23.00337654, 2.69685007
11542, 22.90108805, 2.96420240
11543, 23.35743718, 2.58768527
11544, 23.11619291, 2.44216670
11545, 23.49248154, 2.97313296
11546, 23.58972669, 2.72111148
11547, 23.31384439, 3.50385819
11548, 23.40316297, 3.23849557
11549, 38.73508873, -3.72346743
11550, 38.37670106, -3.30973900
11551, 38.75323896, -3.33871326
11552, 37.96184178, -3.64509383
11553, 38.00035692, -3.25761574
11554, 38.34136165, -4.09321658
11555, 37.88399565, -4.50422330
11556, 37.92291872, -4.07465856
11557, 38.71911422, -4.50679899
11558, 38.72710147, -4.11513321
11559, 36.95435544, 5.99500290
11560, 37.16960465, 6.45473672
11561, 37.29701167, 6.11857415
11562, 36.83358756, 6.65429445
11563, 37.10111922, 6.74455733
11564, 36.60301859, 6.30267644
11565, 36.56168154, 6.59863405
11566, 36.60397423, 5.93400309
11567, 32.48340442, -5.68743982
11568, 32.36112574, -5.28879017
11569, 32.59315149, -5.41912865
11570, 32.03699511, -5.41628166
11571, 31.92555479, -5.03452576
11572, 32.14334026, -5.16165796
11573, 31.69980618, -5.53131047
11574, 32.13739871, -5.81578035
11575, 31.91860244, -5.67354541
11576, 32.36539797, -5.95397315
11577, 34.20180323, 8.32498397
11578, 34.00061860, 7.99594178
11579, 33.95664387, 8.27188851
11580, 34.31559594, 7.72404539
11581, 34.01328544, 7.66431220
11582, 34.52424361, 8.11093463
11583, 34.59095302, 7.80760723
11584, 34.46284925, 8.40052307
11585, 30.69110846, -7.65822232
11586, 31.05268079, -7.53356596
11587, 31.15559752, -7.97346473
11588, 30.92335299, -7.81584352
11589, 31.51432848, -7.83910862
11590, 31.39024565, -8.11975409
11591, 31.40588258, -7.41809144
11592, 31.63695886, -7.56610650
11593, 30.95158389, -7.10316468
11594, 31.17873324, -7.26062806
11595, 26.46068458, -5.10535067
11596, 25.99132070, -5.04346356
11597, 25.99634798, -4.43268970
11598, 26.46571185, -4.49457681
11599, 26.22851628, -4.76902018
11600, 26.05099941, -3.88731337
11601, 25.56797409, -4.30814205
11602, 25.62262552, -3.76276572
11603, 25.80948675, -4.09772771
11604, 25.06906719, -4.08436613
11605, 25.48419810, -4.86313363
11606, 25.27663265, -4.47374988
11607, 25.92062222, -5.83847719
11608, 25.70241016, -5.35080541
11609, 25.52872135, 4.82344392
11610, 25.62031675, 4.24384121
11611, 25.08935333, 4.02828638
11612, 25.30903734, 4.42586515
11613, 25.67947091, 3.66841246
11614, 26.09311265, 4.35852628
11615, 25.88629178, 4.01346937
11616, 26.07172412, 4.99896313
11617, 26.34448997, 4.70684562
11618, 25.74807453, 5.32246120
11619, 35.07397679, 2.68449367
11620, 35.00604558, 2.21715707
11621, 34.79921025, 2.47633033
11622, 35.34005702, 2.14115431
11623, 35.26102246, 1.81085168
11624, 35.13353402, 2.01400437
11625, 35.73220724, 1.98521532
11626, 35.50747781, 2.55628631
11627, 35.89962802, 2.40034733
11628, 35.61984252, 2.27075082
11629, 35.64795977, 3.01633127
11630, 35.36096828, 2.85041247
11631, 31.51532719, -2.77565463
11632, 31.53737751, -3.22314469
11633, 31.12417476, -3.23661905
11634, 31.31975098, -3.00613684
11635, 31.14362175, -3.65451907
11636, 30.94243193, -3.45126547
11637, 31.49689570, -3.66576476
11638, 31.31644010, -3.85660167
11639, 31.98453220, -3.29387419
11640, 31.74071395, -3.47981947
11641, 32.32214942, 8.07697687
11642, 32.41721696, 8.45893367
11643, 32.53890440, 8.21087898
11644, 32.07685846, 8.59384329
11645, 32.30413003, 8.71827459
11646, 31.96354513, 8.19701346
11647, 31.84492232, 8.46152001
11648, 32.09083139, 7.93610323
11649, 29.56419704, -7.96371470
11650, 29.60100351, -8.48352944
11651, 29.33212089, -8.27958362
11652, 30.03517300, -8.35293526
11653, 29.88759378, -8.67076644
11654, 29.94089359, -7.88435002
11655, 30.32915646, -7.76721980
11656, 30.18216473, -8.06007753
11657, 29.88799342, -7.41214086
11658, 29.72609523, -7.68792778
11659, 29.58478898, 8.46330792
11660, 29.44238715, 7.88511364
11661, 29.27121594, 8.24028309
11662, 29.93554795, 7.86774031
11663, 29.67090486, 7.56142762
11664, 30.01671945, 8.34065479
11665, 30.17768857, 8.07265182
11666, 29.87836700, 8.66462621
11667, 41.05619363, -10.46008427
11668, 40.79870536, -10.70463967
11669, 40.82088295, -10.45992089
11670, 41.03193940, -10.97526068
11671, 40.77440962, -10.97539037
11672, 41.30760272, -10.67266891
11673, 41.56326287, -10.93211381
11674, 41.29760113, -10.95368724
11675, 41.53913596, -10.38007037
11676, 41.29766480, -10.42007732
11677, 27.40446128, -1.59696504
11678, 27.82961243, -1.49095970
11679, 27.93343644, -1.96970237
11680, 27.50828529, -2.07570770
11681, 27.66894886, -1.78333370
11682, 27.97772493, -2.46462932
11683, 28.36686553, -1.92557229
11684, 28.17229523, -2.19510081
11685, 28.32751366, -1.39722035
11686, 28.60708212, -1.64313779
11687, 27.73042686, -0.87955294
11688, 28.02897026, -1.13838665
11689, 36.67766349, 3.20059377
11690, 36.24844278, 3.34281922
11691, 36.53714022, 3.50629847
11692, 36.08918329, 2.86767975
11693, 35.94820128, 3.17957524
11694, 36.52626713, 2.69094040
11695, 36.21294757, 2.54564386
11696, 36.86933582, 2.87528813
11697, 41.52172291, 6.22172511
11698, 41.87009235, 6.64329743
11699, 42.24387237, 6.30967500
11700, 41.88279764, 6.26570006
11701, 42.19367833, 7.03114441
11702, 41.51834885, 6.95780845
11703, 41.85601359, 6.99447643
11704, 41.16986491, 6.57454689
11705, 40.83091670, 6.92097886
11706, 41.17463277, 6.93939366
11707, 40.80866494, 6.17288258
11708, 41.16519393, 6.19730385
11709, 22.98043601, 3.64907647
11710, 23.14438799, 4.05182111
11711, 23.22911619, 3.77783965
11712, 22.83051715, 4.20710358
11713, 23.06815638, 4.32799059
11714, 22.63236487, 3.79180163
11715, 22.58230978, 4.08294079
11716, 22.71558221, 3.51167818
11717, 22.35713436, -3.95747993
11718, 22.67238555, -3.79441685
11719, 22.84750589, -4.21101685
11720, 22.60232012, -4.08424839
11721, 23.17224513, -4.06208053
11722, 23.08208495, -4.33312030
11723, 23.03121717, -3.66398319
11724, 23.27093641, -3.79555402
11725, 22.52071910, -3.37484249
11726, 22.77596814, -3.51941284
11727, 26.68342149, -0.31593571
11728, 26.96707752, -0.70003095
11729, 26.60492802, -1.00548802
11730, 26.64417476, -0.66071187
11731, 26.83871702, -1.38355438
11732, 26.52663382, -1.34050022
11733, 27.22515690, -1.18168982
11734, 27.12158915, -1.49025971
11735, 27.47234747, -0.39789406
11736, 27.34875219, -0.78979194
11737, 27.28896382, -3.97277541
11738, 26.88754767, -3.97697351
11739, 26.86516766, -3.48103417
11740, 27.26658380, -3.47683608
11741, 27.07706574, -3.72690479
11742, 26.86912421, -3.01809978
11743, 26.48412916, -3.45104335
11744, 26.67662669, -3.23457157
11745, 26.45685885, -3.95431713
11746, 26.26756428, -3.66917836
11747, 26.89640067, -4.51723318
11748, 26.67662976, -4.23577516
11749, 27.41500081, 0.49995686
11750, 26.98474152, 0.86635381
11751, 27.37709543, 0.92612122
11752, 26.65162970, 0.44574901
11753, 26.59899255, 0.86226543
11754, 27.02254115, 0.07277676
11755, 26.66752560, 0.06490665
11756, 27.44367414, 0.05103140
11757, 27.62510957, -2.98121774
11758, 27.57920107, -2.50999870
11759, 27.80141725, -2.72292353
11760, 27.20685146, -2.57705849
11761, 27.35756838, -2.32638309
11762, 27.23348296, -3.00687352
11763, 27.03798784, -2.79757913
11764, 27.44584669, -3.22902691
11765, 22.11297477, -3.50189905
11766, 21.95178634, -3.04336080
11767, 22.35953067, -2.91630425
11768, 22.23625272, -3.20910165
11769, 21.76238714, -2.49306881
11770, 21.47660626, -3.19938252
11771, 21.61949670, -2.84622566
11772, 21.71033537, -3.66693652
11773, 21.36762590, -3.52442749
11774, 22.03373486, -3.81220823
11775, 35.15686653, -3.05319999
11776, 35.39982365, -3.40637862
11777, 35.07029461, -3.65039304
11778, 35.11358057, -3.35179652
11779, 35.65502381, -3.82015828
11780, 35.78688692, -3.15731651
11781, 35.72095536, -3.48873740
11782, 35.49259374, -2.73459378
11783, 35.88818683, -2.44549357
11784, 35.83753688, -2.80140504
11785, 35.13176048, -2.35192549
11786, 35.14431350, -2.70256274
11787, 41.31457883, -0.96485882
11788, 41.67445237, -0.46978541
11789, 41.72264347, -0.89505635
11790, 41.17371745, -0.20229445
11791, 41.57440372, -0.03424789
11792, 40.89448831, -0.63661536
11793, 40.82683004, -0.28808065
11794, 40.93643713, -1.02492980
11795, 35.25926120, -4.02919023
11796, 34.90055637, -4.22596775
11797, 34.98542549, -3.93818040
11798, 35.06411990, -4.62384799
11799, 34.79305058, -4.51171393
11800, 35.46478913, -4.44215232
11801, 35.35036368, -4.74068347
11802, 35.55990647, -4.13115530
11803, 44.60772690, -7.91100206
11804, 44.32608796, -8.42040571
11805, 44.22839814, -8.04426993
11806, 44.79991756, -8.71459851
11807, 44.40116828, -8.82753079
11808, 45.15973025, -8.15712515
11809, 45.22855415, -8.60032170
11810, 45.03533947, -7.69638073
11811, 38.73111077, -5.26364218
11812, 38.34869710, -4.86889353
11813, 38.72511249, -4.88522059
11814, 38.03453934, -5.26898619
11815, 37.95926749, -4.88660474
11816, 38.37120158, -5.59845997
11817, 38.04717237, -5.59861409
11818, 38.72829620, -5.62146753
11819, 20.42181773, -1.36241296
11820, 20.67467427, -1.77358992
11821, 20.34667170, -1.69271696
11822, 21.03242520, -1.46951502
11823, 21.02815962, -1.82484439
11824, 20.80473304, -1.14347498
11825, 21.07554466, -1.18992256
11826, 20.49662956, -1.02865053
11827, 26.52773890, -5.72719511
11828, 26.61408565, -6.41870864
11829, 26.26735394, -6.12859291
11830, 27.15199032, -6.30053653
11831, 27.33718531, -6.94578698
11832, 26.97563548, -6.68224781
11833, 27.62353696, -6.20107767
11834, 27.01944208, -5.69637032
11835, 27.49098872, -5.59691146
11836, 27.32148952, -5.94872399
11837, 26.95238776, -5.07452587
11838, 26.74006333, -5.40086049
11839, 37.17723212, -0.13875199
11840, 37.42183501, 0.26359567
11841, 37.48771395, -0.05540140
11842, 37.02783259, 0.53947058
11843, 37.36736701, 0.61729634
11844, 36.73980525, 0.09263879
11845, 36.67904975, 0.45557111
11846, 36.83267773, -0.28682553
11847, 32.41576855, -2.71512346
11848, 32.40040976, -2.22960748
11849, 32.84368519, -2.20923809
11850, 32.62972687, -2.46218078
11851, 32.36320687, -1.66560277
11852, 31.91743051, -2.25783337
11853, 32.14031869, -1.96171807
11854, 31.95821839, -2.74209133
11855, 31.71637885, -2.51674400
11856, 32.20015038, -3.00449883
11857, 30.68422370, -5.79962819
11858, 30.76971233, -6.23462944
11859, 30.42195474, -6.32268518
11860, 30.55308922, -6.06115668
11861, 30.85977456, -6.66386986
11862, 31.11614688, -6.13537213
11863, 30.98796072, -6.39962100
11864, 31.02817744, -5.71935471
11865, 31.36854441, -5.62477861
11866, 31.24234564, -5.88007537
11867, 30.94827205, -5.29706928
11868, 30.81624788, -5.54834873
11869, 29.93059758, -1.38558739
11870, 30.30774370, -1.23405973
11871, 30.19570355, -1.50384672
11872, 30.18651104, -0.80285428
11873, 30.61178728, -0.68734858
11874, 30.45976549, -0.96070415
11875, 29.99200308, -0.26734561
11876, 29.71402229, -0.97551513
11877, 29.85301269, -0.62143037
11878, 29.60522607, -1.30984025
11879, 24.30088624, 0.61510588
11880, 24.40979813, 1.01163499
11881, 24.53394215, 0.75837877
11882, 24.05375917, 1.11085565
11883, 24.28259469, 1.26075782
11884, 23.94222116, 0.73170518
11885, 23.82747318, 0.97497497
11886, 24.05652103, 0.45206030
11887, 36.31162519, -2.13170409
11888, 36.73449006, -1.84643643
11889, 37.02422564, -2.30173169
11890, 36.66792542, -2.21671789
11891, 37.43022439, -2.01700230
11892, 37.37320408, -2.37955974
11893, 37.17910017, -1.60970597
11894, 37.49552012, -1.69086763
11895, 36.48261910, -1.31472775
11896, 36.83085963, -1.46221686
11897, 42.86185943, 7.19956447
11898, 42.58139543, 6.77178186
11899, 42.52776888, 7.11535444
11900, 42.98944270, 6.45790215
11901, 42.61665753, 6.38378858
11902, 43.33223638, 6.96760360
11903, 43.38755575, 6.55443377
11904, 43.23363276, 7.36768764
11905, 39.19221592, 7.93475155
11906, 38.86329954, 8.24688111
11907, 39.17954357, 8.27423508
11908, 38.58076022, 7.88984544
11909, 38.56288300, 8.21673613
11910, 38.86595848, 7.57890140
11911, 38.57470965, 7.56848286
11912, 39.18312122, 7.59083518
11913, 27.82569155, -4.96767357
11914, 27.75233750, -4.45393793
11915, 27.99166521, -4.67891372
11916, 27.33976572, -4.48778930
11917, 27.52065066, -4.21335667
11918, 27.39575280, -5.04508200
11919, 27.14607674, -4.78115759
11920, 27.65834013, -5.28229251
11921, 28.42713942, -7.15221312
11922, 28.22974297, -6.63606898
11923, 28.50436637, -6.79070615
11924, 27.80619024, -6.78582778
11925, 27.92663997, -6.41857332
11926, 28.06059724, -7.43796826
11927, 27.69889128, -7.19187762
11928, 28.40552170, -7.64205447
11929, 40.14224742, 6.89826156
11930, 39.78150899, 6.52653083
11931, 39.80376162, 6.89261314
11932, 40.10290777, 6.15155595
11933, 39.75337333, 6.15104901
11934, 40.47263099, 6.53957744
11935, 40.45578635, 6.16221927
11936, 40.48658206, 6.90962021
11937, 21.92071739, -0.17471237
11938, 21.66984682, -0.47701180
11939, 21.65146327, -0.20076522
11940, 21.89632542, -0.76415198
11941, 21.64074351, -0.74302225
11942, 22.23325864, -0.49398029
11943, 22.19642295, -0.82371522
11944, 22.24587018, -0.14806293
11945, 33.72591721, -1.58409020
11946, 33.98600189, -1.39397639
11947, 34.19941853, -1.68507927
11948, 33.96266787, -1.63458473
11949, 34.59424213, -1.47302710
11950, 34.82292255, -1.92821836
11951, 34.51117054, -1.80664881
11952, 34.95152916, -1.19600516
11953, 34.32059841, -1.10068872
11954, 34.63606378, -1.14834694
11955, 33.66174120, -1.00352452
11956, 33.99116980, -1.05210662
11957, 42.33944355, 8.87693599
11958, 42.72500197, 9.08954684
11959, 42.92923005, 8.68971820
11960, 42.63433680, 8.78332710
11961, 43.35667557, 8.90859558
11962, 43.25660275, 8.54781018
11963, 43.11205614, 9.33082966
11964, 43.51865730, 9.57539657
11965, 43.43766643, 9.24199608
11966, 42.87519714, 9.74186820
11967, 42.48814297, 9.50058538
11968, 42.80009956, 9.41570752
11969, 22.66797966, -2.39760207
11970, 22.62313507, -2.00332879
11971, 22.82678997, -2.18153845
11972, 22.22938675, -1.99898191
11973, 22.43117019, -1.76248066
11974, 22.26522695, -2.47510690
11975, 21.99588694, -2.24602536
11976, 22.51375517, -2.65695316
11977, 30.16054750, -6.86394996
11978, 30.23878083, -7.31604672
11979, 30.02427046, -7.13804541
11980, 30.60073283, -7.20704924
11981, 30.46494465, -7.48713452
11982, 30.50892350, -6.76775442
11983, 30.73025370, -6.93545955
11984, 30.29125112, -6.59331757
11985, 37.15194316, -10.51750572
11986, 37.51773093, -10.38293654
11987, 37.38790395, -10.61635900
11988, 37.42154543, -9.99596770
11989, 37.70660816, -10.12769947
11990, 37.01496695, -10.17005346
11991, 37.14230452, -9.89916913
11992, 36.89046409, -10.42666207
11993, 36.87745014, 10.11767382
11994, 37.25527024, 9.93461613
11995, 36.97958220, 9.83469787
11996, 37.38055069, 10.33705177
11997, 37.54068448, 10.06907391
11998, 37.03717201, 10.47828989
11999, 37.27413279, 10.58013856
12000, 36.77665410, 10.38513117
12001, 36.55706583, -7.68037823
12002, 36.79679139, -7.98222441
12003, 36.52030428, -7.95340455
12004, 37.15576259, -7.73562290
12005, 37.10137844, -8.03158714
12006, 36.88172810, -7.37998245
12007, 37.20245272, -7.42483902
12008, 36.54738632, -7.35945049
12009, 41.73107710, 9.02311517
12010, 42.11524213, 9.26213716
12011, 42.03526033, 8.95002558
12012, 41.88904288, 9.64669541
12013, 42.18859293, 9.57364040
12014, 41.54548448, 9.43677229
12015, 41.62062972, 9.72175593
12016, 41.41109096, 9.12097642
12017, 42.07215498, -10.23519476
12018, 41.84363838, -10.58990557
12019, 41.80564547, -10.30763256
12020, 42.12822839, -10.85112873
12021, 41.84574563, -10.89162127
12022, 42.43351244, -10.47002146
12023, 42.44252908, -10.79899668
12024, 42.38113443, -10.14896612
12025, 39.76013388, -6.44642566
12026, 39.36415585, -6.75437008
12027, 39.40082052, -6.40139776
12028, 39.65880498, -7.14976033
12029, 39.30871104, -7.09312610
12030, 40.09107406, -6.86873092
12031, 40.02503345, -7.21991714
12032, 40.13615254, -6.50224390
12033, 30.57069484, -0.26172912
12034, 31.00900617, -0.23062594
12035, 30.81039673, -0.45898726
12036, 31.05012293, 0.18561451
12037, 31.24731985, -0.04678506
12038, 30.57165345, 0.24992424
12039, 30.84431998, 0.45013423
12040, 30.28182826, -0.00871069
12041, 35.58181561, -2.01035346
12042, 36.00525396, -1.69656398
12043, 35.94672040, -2.07102877
12044, 35.66420365, -1.25370551
12045, 36.07341137, -1.28421663
12046, 35.27297768, -1.58664633
12047, 35.30786640, -1.22485534
12048, 35.20236908, -1.96928591
12049, 32.99727051, -1.28159985
12050, 32.88858547, -1.77724676
12051, 32.68023869, -1.47360131
12052, 33.30239459, -1.81241384
12053, 33.07303989, -2.01082596
12054, 33.42259053, -1.47930645
12055, 33.51415590, -1.69825202
12056, 33.32950586, -1.14256218
12057, 43.65280161, 10.26721304
12058, 43.33748826, 10.69502418
12059, 43.69554203, 10.63117063
12060, 42.97871426, 10.40431637
12061, 43.00499756, 10.74562262
12062, 43.24736052, 10.00409533
12063, 42.92695570, 10.07309228
12064, 43.58572945, 9.92130481
12065, 31.21705220, -4.82279586
12066, 31.28512998, -5.22632086
12067, 31.08266213, -5.05993257
12068, 31.61639174, -5.13285273
12069, 31.49246808, -5.37881567
12070, 31.53425446, -4.76583160
12071, 31.72990462, -4.90017868
12072, 31.35101327, -4.60600248
12073, 40.92731400, -8.18880808
12074, 40.45170051, -8.41883105
12075, 40.57336840, -8.08369343
12076, 40.64218868, -8.81617281
12077, 40.32845646, -8.71523792
12078, 41.08143214, -8.69925620
12079, 40.91569884, -8.96191931
12080, 41.30620740, -8.35754741
12081, 35.55413289, 0.96362125
12082, 35.84944700, 1.37052911
12083, 35.88588955, 1.02642939
12084, 35.49308543, 1.59116192
12085, 35.79082712, 1.67787222
12086, 35.25036003, 1.30890639
12087, 35.25569125, 1.55987903
12088, 35.20742466, 0.94948532
12089, 24.89959572, 3.32444651
12090, 24.99231600, 3.00453549
12091, 24.81760785, 3.10470696
12092, 25.34887066, 3.06345864
12093, 25.18986285, 2.82092478
12094, 25.27446502, 3.55554148
12095, 25.51417078, 3.36593555
12096, 24.99447452, 3.67636644
12097, 25.25298141, -3.63682576
12098, 25.33159255, -3.17449776
12099, 25.47710903, -3.46863174
12100, 25.00340449, -3.09578088
12101, 25.19337806, -2.93302995
12102, 24.90489297, -3.39976855
12103, 24.83511215, -3.18343551
12104, 24.98698008, -3.74206734
12105, 55.51899368, -2.88257260
12106, 49.48402475, 2.88043655
12107, 49.49999245, -6.72339407
12108, 55.51042573, 6.71691713
12109, 49.48741304, -2.88294390
12110, 55.51631152, 2.87984497
12111, 49.48524390, 6.71791076
12112, 55.52212594, -6.72196715
12113, 49.50531108, -10.56988143
12114, 53.49935011, 10.56049584
12115, 53.51574257, -10.56475452
12116, 51.49370826, 10.56103165
12117, 55.50259796, 10.56713740
12118, 49.48817822, 8.63995374
12119, 55.51926686, -8.64325829
12120, 49.48483968, -0.96137733
12121, 55.51683402, 0.95996657
12122, 49.49345978, 10.56759566
12123, 55.51139320, -10.56932331
12124, 51.49653801, -2.88165219
12125, 53.50962458, 2.87694605
12126, 53.50094064, 8.63023612
12127, 51.48960305, 6.70944107
12128, 51.51184290, -10.56542980
12129, 49.48417944, 0.96014403
12130, 55.51727806, -0.96131521
12131, 49.48498588, 4.79917467
12132, 55.52065668, -4.80264071
12133, 49.49358722, -4.80347696
12134, 55.51368561, 4.79805701
12135, 55.50604373, 8.63930305
12136, 49.50526886, -8.64473152
12137, 51.49046950, 8.63097118
12138, 53.52397732, -6.71733899
12139, 53.52357656, -8.63769179
12140, 53.51158000, -0.96120739
12141, 53.51463559, -2.88140881
12142, 51.49103530, 0.95906723
12143, 51.49095745, 2.87729135
12144, 51.51110748, -6.71836664
12145, 53.50747520, 4.79262314
12146, 51.49276751, -0.96123935
12147, 53.51018602, 0.95893891
12148, 51.50374138, -4.80044868
12149, 53.51941310, -4.79987736
12150, 51.49076155, 4.79317100
12151, 51.51526487, -8.63884076
12152, 53.50421823, 6.70898560
12153, 55.50391413, 9.60269741
12154, 56.50380724, 8.64645947
12155, 56.50166089, 10.57205978
12156, 56.50245325, 9.60905030
12157, 55.52071402, -7.68237465
12158, 56.51036380, -8.64840622
12159, 56.51221398, -6.72621829
12160, 56.51114966, -7.68722486
12161, 53.49948436, 11.52972823
12162, 51.49669924, 11.52998243
12163, 52.49648145, 10.56042243
12164, 52.49809718, 11.52981706
12165, 48.49069272, -0.96145846
12166, 48.49210523, -2.88374885
12167, 49.48676037, -1.92222471
12168, 48.49200830, -1.92263333
12169, 49.48690831, 7.67856385
12170, 48.49329289, 8.64678412
12171, 48.49146066, 6.72423104
12172, 48.49261225, 7.68535920
12173, 55.51603176, 1.92012653
12174, 56.50990819, 0.96070334
12175, 56.50956705, 2.88209635
12176, 56.50925930, 1.92151382
12177, 56.51036995, -0.96141878
12178, 55.51726290, -1.92203038
12179, 56.51097339, -2.88352727
12180, 56.50998427, -1.92251768
12181, 55.51593598, -0.00060220
12182, 56.50938490, -0.00032170
12183, 49.48579834, 5.75849521
12184, 48.49111148, 4.80335589
12185, 48.49177138, 5.76377012
12186, 56.50834636, 4.80262850
12187, 55.51419401, 3.83913589
12188, 56.50837173, 3.84248447
12189, 55.51147524, 5.75742317
12190, 56.50623592, 6.72359372
12191, 56.50679885, 5.76312555
12192, 55.51895619, -3.84278365
12193, 56.51172001, -4.80502244
12194, 56.51076588, -3.84437243
12195, 55.52069659, -5.76238481
12196, 56.51152025, -5.76566851
12197, 55.50766098, 7.67786887
12198, 56.50466205, 7.68492971
12199, 48.49033031, 2.88246956
12200, 49.48546944, 3.83996250
12201, 48.49139297, 3.84298319
12202, 49.48481299, 1.92045994
12203, 48.49063322, 0.96080754
12204, 48.49109188, 1.92171785
12205, 49.48543116, -0.00054622
12206, 48.49134041, -0.00029178
12207, 49.49104577, -3.84334309
12208, 48.49569882, -4.80550511
12209, 48.49439061, -3.84469476
12210, 48.49911146, -6.72695878
12211, 49.49745185, -5.76346822
12212, 48.49783621, -5.76627132
12213, 48.50213830, -8.64912454
12214, 49.50326903, -7.68392207
12215, 48.50103603, -7.68801676
12216, 54.51477293, 2.87805659
12217, 53.50944762, 1.91828642
12218, 54.51538655, 0.95929501
12219, 54.51450580, 1.91896002
12220, 53.51018817, -0.00100855
12221, 54.51632819, -0.96125284
12222, 54.51502128, -0.00087522
12223, 53.51242622, -1.92143576
12224, 54.51870725, -2.88181344
12225, 54.51674225, -1.92163887
12226, 50.48703776, -0.96130427
12227, 51.49223475, -0.00095340
12228, 50.48584226, 0.95947819
12229, 50.48703739, -0.00081306
12230, 50.49050162, -2.88217976
12231, 51.49496194, -1.92155468
12232, 50.48916759, -1.92182813
12233, 51.49137735, 1.91848483
12234, 50.48578962, 2.87859493
12235, 50.48634365, 1.91928123
12236, 52.50238587, -0.96121743
12237, 52.50597469, -2.88133639
12238, 52.50390111, -1.92139350
12239, 52.50068425, 0.95879926
12240, 52.50134600, -0.00107470
12241, 52.50027238, 2.87668912
12242, 52.50042872, 1.91808490
12243, 50.50474521, -6.72067398
12244, 51.50776204, -5.75944791
12245, 50.49743691, -4.80178976
12246, 50.50154478, -5.76127494
12247, 51.50039686, -3.84127365
12248, 50.49432073, -3.84215290
12249, 53.50822755, 3.83502753
12250, 54.51208685, 4.79489670
12251, 54.51289869, 3.83671059
12252, 52.51219525, -4.79982585
12253, 53.51630515, -3.84091621
12254, 52.50871312, -3.84083618
12255, 54.52186543, -4.80092807
12256, 53.52140172, -5.75867463
12257, 54.52455122, -6.71927845
12258, 54.52276054, -5.76020317
12259, 54.51952601, -3.84160552
12260, 50.48608401, 4.79576910
12261, 51.49053703, 5.75121839
12262, 50.48605103, 6.71330527
12263, 50.48660549, 5.75452339
12264, 51.49162235, 3.83552369
12265, 50.48669046, 3.83743444
12266, 53.50830740, -11.53187110
12267, 52.51407141, -10.56492866
12268, 51.50633405, -11.53229543
12269, 52.50737710, -11.53208999
12270, 52.49915902, 4.79238618
12271, 52.49983198, 3.83483186
12272, 52.51801718, -6.71747563
12273, 52.51500732, -5.75874814
12274, 50.50828261, -10.56760666
12275, 49.50294847, -11.53471202
12276, 50.50450473, -11.53350448
12277, 55.51536808, -9.60588292
12278, 56.50595011, -10.57311590
12279, 56.50812760, -9.61058479
12280, 49.49106808, 9.60332072
12281, 48.49640182, 10.57226204
12282, 48.49500814, 9.60932301
12283, 55.50579097, -11.53442393
12284, 56.50300142, -11.53645265
12285, 49.49677273, 11.53355608
12286, 48.49823802, 11.53602328
12287, 54.51408436, -10.56692743
12288, 54.50723580, -11.53315145
12289, 50.49303725, 10.56424246
12290, 50.49649507, 11.53179536
12291, 48.50242914, -10.57335757
12292, 48.50137560, -11.53656675
12293, 54.50154350, 10.56360259
12294, 55.50110480, 11.53341896
12295, 54.50059021, 11.53151134
12296, 56.50074399, 11.53592410
12297, 49.50598733, -9.60701690
12298, 48.50267748, -9.61110952
12299, 52.49697741, 6.70850176
12300, 53.50550201, 5.75090372
12301, 52.49801412, 5.75051295
12302, 50.48818590, 8.63508304
12303, 51.49223946, 9.59551082
12304, 50.49078823, 9.59919760
12305, 54.52266828, -8.64007184
12306, 53.51983164, -9.60082381
12307, 54.51847871, -9.60309721
12308, 51.49033927, 7.66997071
12309, 50.48736917, 7.67391127
12310, 53.52362614, -7.67740363
12311, 54.52353041, -7.67952121
12312, 54.50446821, 8.63422764
12313, 53.50226124, 7.66934696
12314, 54.50849641, 6.71261918
12315, 54.50607663, 7.67315073
12316, 54.50988161, 5.75371235
12317, 53.49971923, 9.59492445
12318, 52.49572890, 8.63037174
12319, 52.49591538, 9.59476486
12320, 54.50256471, 9.59848341
12321, 52.51966695, -8.63802119
12322, 51.51418259, -9.60167451
12323, 52.51738484, -9.60098436
12324, 50.50968491, -8.64170801
12325, 50.50973150, -9.60421570
12326, 52.49622213, 7.66909689
12327, 51.51357723, -7.67852614
12328, 52.51909680, -7.67757220
12329, 50.50777971, -7.68100713
12330, 56.00212942, 10.56959859
12331, 56.50205707, 10.09055504
12332, 56.00318369, 9.60587386
12333, 55.50325604, 10.08491741
12334, 56.00265656, 10.08773623
12335, 55.50497893, 9.12100023
12336, 56.50313025, 9.12775489
12337, 56.00492549, 8.64288126
12338, 56.00405459, 9.12437756
12339, 57.00190362, 8.65015281
12340, 57.00122662, 9.61221746
12341, 57.00156512, 9.13118514
12342, 57.00083044, 10.57449143
12343, 57.00102853, 10.09335445
12344, 56.01716996, -6.72409272
12345, 56.51168182, -7.20672157
12346, 56.01593184, -7.68479976
12347, 55.52141998, -7.20217090
12348, 56.01655090, -7.20444624
12349, 55.51999044, -8.16281647
12350, 56.51075673, -8.16781554
12351, 56.01481533, -8.64583226
12352, 56.01537359, -8.16531601
12353, 57.00518190, -8.65112619
12354, 57.00557483, -7.68976628
12355, 57.00537836, -8.17044623
12356, 57.00610699, -6.72849376
12357, 57.00584091, -7.20913002
12358, 52.99791578, 10.56045913
12359, 52.49728931, 11.04511975
12360, 52.99879077, 11.52977264
12361, 53.49941724, 11.04511203
12362, 52.99835328, 11.04511589
12363, 53.49974218, 12.01486411
12364, 52.49904859, 12.01490853
12365, 52.99939538, 12.01488632
12366, 51.99739821, 11.52989975
12367, 51.49834962, 12.01499121
12368, 51.99869911, 12.01494987
12369, 51.49520375, 11.04550704
12370, 51.99509485, 10.56072704
12371, 51.99624653, 11.04531339
12372, 49.48580003, -1.44180102
12373, 48.98938434, -1.92242902
12374, 48.49135051, -1.44204589
12375, 48.98776620, -0.96141789
12376, 48.98857527, -1.44192346
12377, 47.99534636, -0.96149846
12378, 47.99600415, -1.92285512
12379, 47.99567525, -1.44217679
12380, 48.49205676, -2.40319109
12381, 47.99605261, -2.88418212
12382, 47.99602838, -2.40351862
12383, 48.98975913, -2.88334637
12384, 49.48708671, -2.40258430
12385, 48.98957173, -2.40288770
12386, 48.98835228, 6.72107090
12387, 48.49203645, 7.20479512
12388, 48.98976028, 7.68196153
12389, 49.48607611, 7.19823731
12390, 48.98905628, 7.20151621
12391, 49.48754327, 8.15925880
12392, 48.49295257, 8.16607166
12393, 48.99073556, 8.64336893
12394, 48.99024792, 8.16266523
12395, 47.99664645, 8.65031513
12396, 47.99630612, 7.68883344
12397, 47.99647628, 8.16957429
12398, 47.99573033, 6.72750014
12399, 47.99601823, 7.20816679
12400, 56.01293928, 2.88097066
12401, 56.50941317, 2.40180508
12402, 56.01264553, 1.92082017
12403, 55.51617164, 2.39998575
12404, 56.01279241, 2.40089542
12405, 55.51643289, 1.44004655
12406, 56.50958374, 1.44110858
12407, 56.01337110, 0.96033496
12408, 56.01300832, 1.44057757
12409, 57.00495409, 0.96112090
12410, 57.00462965, 1.92229537
12411, 57.00479187, 1.44170814
12412, 57.00478353, 2.88335587
12413, 57.00470659, 2.40282562
12414, 57.00499214, -1.92279730
12415, 56.51017711, -1.44196823
12416, 57.00518497, -0.96147862
12417, 57.00508855, -1.44213796
12418, 56.01382400, -0.96136699
12419, 56.01362359, -1.92227403
12420, 55.51727048, -1.44167279
12421, 56.01372379, -1.44182051
12422, 55.51812829, -2.40230149
12423, 56.51047883, -2.40302248
12424, 56.01498354, -2.88304994
12425, 56.01430356, -2.40266198
12426, 57.00548670, -2.88407133
12427, 57.00523942, -2.40343432
12428, 56.50987742, -0.48087024
12429, 57.00469245, -0.00016085
12430, 57.00493871, -0.48081973
12431, 56.50964654, 0.48019082
12432, 57.00482327, 0.48048003
12433, 56.01266044, -0.00046195
12434, 55.51638500, 0.47968219
12435, 56.01301577, 0.47993650
12436, 55.51660702, -0.48095870
12437, 56.01324222, -0.48091447
12438, 48.98804868, 4.80126528
12439, 48.49144143, 5.28356301
12440, 48.98878486, 5.76113267
12441, 49.48539211, 5.27883494
12442, 48.98841677, 5.28119897
12443, 49.48552112, 6.23820299
12444, 48.49161602, 6.24400058
12445, 48.98856857, 6.24110178
12446, 47.99588569, 5.76650045
12447, 47.99580801, 6.24700029
12448, 47.99555574, 4.80552410
12449, 47.99572071, 5.28601227
12450, 55.51525276, 3.35949043
12451, 56.01128287, 3.84081018
12452, 56.50896939, 3.36229041
12453, 56.01211108, 3.36089042
12454, 57.00418586, 3.84431916
12455, 57.00448469, 3.36383751
12456, 56.50835904, 4.32255648
12457, 57.00417318, 4.80516040
12458, 57.00417952, 4.32473978
12459, 56.01101599, 4.80034275
12460, 55.51393981, 4.31859645
12461, 56.01114943, 4.32057647
12462, 56.00833083, 6.72025542
12463, 56.50651739, 6.24335963
12464, 56.00913705, 5.76027436
12465, 55.51095048, 6.23717015
12466, 56.00873394, 6.24026489
12467, 55.51258043, 5.27774009
12468, 56.50757261, 5.28287702
12469, 56.01007652, 5.28030856
12470, 57.00339943, 5.76617816
12471, 57.00378630, 5.28566928
12472, 57.00311796, 6.72718147
12473, 57.00325869, 6.24667982
12474, 57.00586000, -4.80635737
12475, 56.51124294, -4.32469743
12476, 57.00538294, -3.84526314
12477, 57.00562147, -4.32581025
12478, 56.51086964, -3.36394985
12479, 57.00543482, -3.36466723
12480, 56.01486103, -3.84357804
12481, 55.51897494, -3.36267812
12482, 56.01492229, -3.36331399
12483, 55.51980644, -4.32271218
12484, 56.01618834, -4.80383157
12485, 56.01552469, -4.32370480
12486, 57.00576012, -5.76744964
12487, 56.51162013, -5.28534548
12488, 57.00581006, -5.28690351
12489, 56.01610842, -5.76402666
12490, 55.52067664, -5.28251276
12491, 56.01614838, -5.28392912
12492, 55.52141127, -6.24217598
12493, 56.51186711, -6.24594340
12494, 56.01663919, -6.24405969
12495, 57.00593356, -6.24797170
12496, 57.00233102, 7.68861870
12497, 56.50423465, 8.16569459
12498, 57.00211732, 8.16938576
12499, 56.00616151, 7.68139929
12500, 55.50685235, 8.15858596
12501, 56.00554350, 8.16214028
12502, 55.50904335, 7.19739300
12503, 56.50544899, 7.20426172
12504, 56.00724617, 7.20082736
12505, 57.00272449, 7.20790009
12506, 47.99569648, 3.84456852
12507, 48.49086164, 3.36272638
12508, 47.99516516, 2.88354247
12509, 47.99543082, 3.36405550
12510, 48.98717753, 2.88145305
12511, 48.98843120, 3.84147285
12512, 49.48474709, 3.36019953
12513, 48.98780437, 3.36146295
12514, 49.48522766, 4.31956859
12515, 48.49125222, 4.32316954
12516, 48.98823994, 4.32136906
12517, 47.99562611, 4.32504631
12518, 48.98740633, 0.96047579
12519, 48.49086255, 1.44126270
12520, 48.98795243, 1.92108890
12521, 49.48449621, 1.44030198
12522, 48.98767938, 1.44078234
12523, 49.48441887, 2.40044824
12524, 48.49071109, 2.40209370
12525, 48.98756498, 2.40127097
12526, 47.99554594, 1.92239739
12527, 47.99535555, 2.40296993
12528, 47.99531661, 0.96117300
12529, 47.99543127, 1.44178520
12530, 49.48480530, 0.47979890
12531, 48.98838578, -0.00041900
12532, 48.49098681, 0.48025788
12533, 48.98789606, 0.48002839
12534, 47.99567020, -0.00014589
12535, 47.99549341, 0.48051356
12536, 48.49101656, -0.48087512
12537, 47.99550828, -0.48082217
12538, 49.48513542, -0.48096178
12539, 48.98807599, -0.48091845
12540, 48.99464302, -4.80449104
12541, 48.49504472, -4.32509993
12542, 48.99271819, -3.84401892
12543, 49.49231649, -4.32341003
12544, 48.99368060, -4.32425498
12545, 49.48922940, -3.36314349
12546, 48.49324792, -3.36422180
12547, 48.99123866, -3.36368265
12548, 47.99719531, -3.84542430
12549, 47.99662396, -3.36480321
12550, 47.99784941, -4.80659871
12551, 47.99752236, -4.32601150
12552, 47.99891810, -5.76775105
12553, 48.49847383, -6.24661505
12554, 47.99955573, -6.72886400
12555, 47.99923692, -6.24830752
12556, 48.99955195, -6.72517642
12557, 48.99764403, -5.76486977
12558, 49.49872215, -6.24343115
12559, 48.99859799, -6.24502310
12560, 49.49551953, -5.28347259
12561, 48.49676751, -5.28588822
12562, 48.99614352, -5.28468040
12563, 47.99838376, -5.28717488
12564, 48.50007374, -7.20748777
12565, 48.00051801, -7.69016223
12566, 48.00003687, -7.20951311
12567, 48.50158717, -8.16857065
12568, 48.00106915, -8.65148535
12569, 48.00079358, -8.17082379
12570, 49.00370358, -8.64692803
12571, 49.00215253, -7.68596941
12572, 49.50426894, -8.16432679
12573, 49.00292806, -8.16644872
12574, 49.50163074, -7.20365807
12575, 49.00085224, -7.20557292
12576, 55.01526878, 1.91954327
12577, 54.51463936, 2.39850830
12578, 55.01554222, 2.87895078
12579, 55.01540550, 2.39924703
12580, 54.01219875, 2.87750132
12581, 54.01197671, 1.91862322
12582, 53.50953610, 2.39761623
12583, 54.01208773, 2.39806227
12584, 53.50981682, 1.43861267
12585, 54.51494617, 1.43912751
12586, 54.01278628, 0.95911696
12587, 54.01238149, 1.43887009
12588, 55.01611028, 0.95963079
12589, 55.01568953, 1.43958703
12590, 55.01680312, -0.96128402
12591, 54.51567473, -0.48106403
12592, 55.01547863, -0.00073871
12593, 55.01614088, -0.48101137
12594, 54.51520391, 0.47920989
12595, 55.01579446, 0.47944604
12596, 54.01260472, -0.00094188
12597, 53.51018709, 0.47896518
12598, 54.01269550, 0.47908754
12599, 53.51088408, -0.48110797
12600, 54.01395409, -0.96123012
12601, 54.01327941, -0.48108600
12602, 55.01700257, -1.92183462
12603, 54.51653522, -1.44144586
12604, 55.01690285, -1.44155932
12605, 54.01458423, -1.92153732
12606, 53.51200311, -1.44132158
12607, 54.01426916, -1.44138372
12608, 53.51353090, -2.40142229
12609, 54.51772475, -2.40172615
12610, 54.01667142, -2.88161112
12611, 54.01562783, -2.40157422
12612, 55.01885047, -2.88219302
12613, 55.01792652, -2.40201382
12614, 49.98501085, 0.95981111
12615, 50.48643982, 0.47933256
12616, 49.98623428, -0.00067964
12617, 49.98562256, 0.47956573
12618, 50.48703758, -0.48105867
12619, 49.98593872, -0.96134080
12620, 49.98608650, -0.48101022
12621, 50.98990263, -0.96127181
12622, 50.98963607, -0.00088323
12623, 51.49250113, -0.48109637
12624, 50.98976935, -0.48107752
12625, 51.49163503, 0.47905692
12626, 50.98843878, 0.95927271
12627, 50.98903743, 0.47919474
12628, 49.98796398, -1.92202642
12629, 50.48983461, -2.40200394
12630, 49.98895733, -2.88256183
12631, 49.98846066, -2.40229412
12632, 50.99351982, -2.88191597
12633, 50.99206477, -1.92169140
12634, 51.49574998, -2.40160343
12635, 50.99279229, -2.40180369
12636, 51.49386473, -1.44139702
12637, 50.48810268, -1.44156620
12638, 50.99098370, -1.44148161
12639, 49.98695135, -1.44168361
12640, 49.98557832, 1.91987058
12641, 50.48609295, 1.43937971
12642, 49.98529458, 1.43984084
12643, 50.98886050, 1.91888303
12644, 51.49120632, 1.43877603
12645, 50.98864964, 1.43907787
12646, 51.49116740, 2.39788809
12647, 50.48606664, 2.39893808
12648, 50.98837354, 2.87794314
12649, 50.98861702, 2.39841308
12650, 49.98490719, 2.87951574
12651, 49.98524275, 2.39969316
12652, 53.00816366, -1.92141463
12653, 52.50314349, -1.44130546
12654, 53.00698293, -0.96121241
12655, 53.00757330, -1.44131352
12656, 51.99757669, -0.96122839
12657, 51.99943153, -1.92147409
12658, 51.99850411, -1.44135124
12659, 52.50493790, -2.40136495
12660, 52.00125635, -2.88149429
12661, 52.00034394, -2.40148419
12662, 53.01030514, -2.88137260
12663, 53.00923440, -2.40139362
12664, 53.00576708, -0.00104163
12665, 52.50101513, 0.47886228
12666, 53.00543514, 0.95886909
12667, 53.00560111, 0.47891373
12668, 51.99585978, 0.95893324
12669, 51.99679038, -0.00101405
12670, 51.99632508, 0.47895960
12671, 52.50186593, -0.48114606
12672, 51.99718353, -0.48112122
12673, 53.00637501, -0.48112702
12674, 51.99561492, 2.87699023
12675, 52.50035055, 2.39738701
12676, 51.99590304, 1.91828486
12677, 51.99575898, 2.39763755
12678, 52.50055649, 1.43844208
12679, 51.99588141, 1.43860905
12680, 53.00493817, 1.91818566
12681, 53.00518665, 1.43852737
12682, 53.00494848, 2.87681759
12683, 53.00494332, 2.39750162
12684, 49.99949831, -5.76237158
12685, 50.50314499, -6.24097446
12686, 50.00236883, -6.72203403
12687, 50.00093357, -6.24220280
12688, 51.00792634, -6.71952031
12689, 51.00465341, -5.76036142
12690, 51.50943476, -6.23890728
12691, 51.00628988, -6.23994087
12692, 51.50575171, -5.27994830
12693, 50.49949085, -5.28153235
12694, 51.00058915, -4.80111922
12695, 51.00262128, -5.28074032
12696, 49.99551206, -4.80263336
12697, 49.99750519, -5.28250247
12698, 50.49587882, -4.32197133
12699, 50.99735879, -3.84171328
12700, 51.50206912, -4.32086117
12701, 50.99897397, -4.32141625
12702, 51.49846744, -3.36146292
12703, 50.49241117, -3.36216633
12704, 50.99543931, -3.36181462
12705, 49.99268325, -3.84274800
12706, 49.99082029, -3.36265491
12707, 49.99409766, -4.32269068
12708, 54.00978102, 4.79375992
12709, 54.51249277, 4.31580364
12710, 54.01056312, 3.83586906
12711, 53.50785137, 4.31382533
12712, 54.01017207, 4.31481449
12713, 53.50892606, 3.35598679
12714, 54.51383581, 3.35738359
12715, 54.01138094, 3.35668519
12716, 55.01354635, 3.83792324
12717, 55.01454429, 3.35843701
12718, 55.01288623, 4.79647685
12719, 55.01321629, 4.31720005
12720, 52.50734390, -3.36108629
12721, 52.00455499, -3.84105492
12722, 52.00290567, -3.36127460
12723, 52.51045418, -4.32033101
12724, 52.00796831, -4.80013726
12725, 52.00626165, -4.32059609
12726, 53.01580417, -4.79985160
12727, 53.01250914, -3.84087619
12728, 53.51785913, -4.32039679
12729, 53.01415665, -4.32036390
12730, 53.51547037, -3.36116251
12731, 53.01140714, -3.36112440
12732, 55.02172857, -5.76129399
12733, 54.52231299, -5.28056562
12734, 55.02126106, -4.80178439
12735, 55.02149481, -5.28153919
12736, 54.02063926, -4.80040272
12737, 54.02208113, -5.75943890
12738, 53.52040741, -5.27927600
12739, 54.02136020, -5.27992081
12740, 53.52268952, -6.23800681
12741, 54.52365588, -6.23974081
12742, 54.02426427, -6.71830872
12743, 54.02317270, -6.23887381
12744, 55.02333858, -6.72062280
12745, 55.02253357, -6.24095840
12746, 55.01924110, -3.84219458
12747, 54.51911663, -3.36170948
12748, 55.01904578, -3.36219380
12749, 54.01791558, -3.84126086
12750, 54.01729350, -3.36143599
12751, 54.52069572, -4.32126680
12752, 54.01927742, -4.32083179
12753, 55.02025108, -4.32198949
12754, 49.98620192, 5.75650930
12755, 50.48634475, 5.27514625
12756, 49.98553495, 4.79747189
12757, 49.98586843, 5.27699059
12758, 50.98842278, 4.79447005
12759, 50.98857126, 5.75287089
12760, 51.49064929, 5.27219469
12761, 50.98849702, 5.27367047
12762, 51.49007004, 6.23032973
12763, 50.48632826, 6.23391433
12764, 50.98782704, 6.71137317
12765, 50.98819915, 6.23212203
12766, 49.98564747, 6.71560802
12767, 49.98592469, 6.23605866
12768, 49.98607995, 3.83869847
12769, 50.48624004, 3.35801469
12770, 49.98549357, 3.35910711
12771, 50.98915640, 3.83647907
12772, 51.49128990, 3.35640752
12773, 50.98876497, 3.35721110
12774, 51.49119195, 4.31434734
12775, 50.48638724, 4.31660177
12776, 50.98878959, 4.31547456
12777, 49.98580745, 4.31808518
12778, 51.50316703, -12.01614772
12779, 52.00685558, -11.53219271
12780, 52.50368855, -12.01604500
12781, 52.00342779, -12.01609636
12782, 53.00784225, -11.53198055
12783, 53.50415370, -12.01593555
12784, 53.00392112, -12.01599027
12785, 53.51202498, -11.04831281
12786, 52.51072425, -11.04850932
12787, 53.01490699, -10.56484159
12788, 53.01137462, -11.04841107
12789, 52.01295715, -10.56517923
12790, 51.50908848, -11.04886261
12791, 52.00990637, -11.04868597
12792, 52.50005218, 3.35576049
12793, 53.00402977, 3.83492969
12794, 53.00448912, 3.35587364
12795, 52.49949550, 4.31360902
12796, 53.00331711, 4.79250466
12797, 53.00367344, 4.31371718
12798, 51.99496028, 4.79277859
12799, 51.99572716, 3.83517777
12800, 51.99534372, 4.31397818
12801, 51.99567104, 3.35608400
12802, 52.51360128, -5.27928699
12803, 52.01138468, -5.75909802
12804, 52.00967650, -5.27961764
12805, 52.51651225, -6.23811188
12806, 52.01456233, -6.71792114
12807, 52.01297351, -6.23850958
12808, 53.02099725, -6.71740731
12809, 53.01820452, -5.75871138
12810, 53.01960089, -6.23805935
12811, 53.01700435, -5.27928149
12812, 49.50147424, -12.01735601
12813, 50.00372660, -11.53410825
12814, 50.50225236, -12.01675224
12815, 50.00186330, -12.01705413
12816, 51.00541939, -11.53289996
12817, 51.00270969, -12.01644998
12818, 50.50639367, -11.05055557
12819, 51.01006275, -10.56651823
12820, 51.00774107, -11.04970909
12821, 50.00679684, -10.56874404
12822, 49.50412978, -11.05229673
12823, 50.00526172, -11.05142615
12824, 57.00297505, -10.57501949
12825, 56.50703885, -10.09185034
12826, 57.00406380, -9.61298470
12827, 57.00351943, -10.09400209
12828, 56.50924570, -9.12949550
12829, 57.00462285, -9.13205544
12830, 56.01174784, -9.60823385
12831, 55.51731747, -9.12457061
12832, 56.01328159, -9.12703306
12833, 55.51338064, -10.08760312
12834, 56.00867166, -10.57121960
12835, 56.01020975, -10.08972673
12836, 47.99820091, 10.57459256
12837, 48.49570498, 10.09079252
12838, 47.99750407, 9.61235381
12839, 47.99785249, 10.09347318
12840, 48.49415052, 9.12805356
12841, 47.99707526, 9.13133447
12842, 48.99303811, 9.60632186
12843, 49.48962315, 9.12163723
12844, 48.99188683, 9.12484539
12845, 49.49226393, 10.08545819
12846, 48.99493080, 10.56992885
12847, 48.99398445, 10.08812536
12848, 56.50150071, -12.01822632
12849, 57.00150071, -11.53745709
12850, 57.00075036, -12.01872855
12851, 56.50447576, -11.05478427
12852, 57.00223788, -11.05623829
12853, 56.00439619, -11.53543829
12854, 55.50859208, -11.05187362
12855, 56.00653392, -11.05332895
12856, 55.50289548, -12.01721196
12857, 56.00219810, -12.01771914
12858, 48.49911901, 12.01801164
12859, 47.99911901, 11.53724241
12860, 47.99955950, 12.01862121
12861, 48.49731992, 11.05414266
12862, 47.99865996, 11.05591749
12863, 48.99750538, 11.53478968
12864, 49.49511625, 11.05057587
12865, 48.99621809, 11.05235927
12866, 49.49838637, 12.01677804
12867, 48.99875269, 12.01739484
12868, 54.01491347, -10.56584098
12869, 54.51066008, -11.05003944
12870, 54.00777160, -11.53251128
12871, 54.01134253, -11.04917613
12872, 54.50361790, -12.01657573
12873, 54.00388580, -12.01625564
12874, 55.00651338, -11.53378769
12875, 55.00325669, -12.01689385
12876, 55.01273878, -10.56812537
12877, 55.00962608, -11.05095653
12878, 50.99337275, 10.56263706
12879, 50.49476616, 11.04801891
12880, 50.99659716, 11.53088889
12881, 50.99498495, 11.04676298
12882, 50.49824753, 12.01589768
12883, 50.99829858, 12.01544445
12884, 49.99663390, 11.53267572
12885, 49.99831695, 12.01633786
12886, 49.99324851, 10.56591906
12887, 49.99494121, 11.04929739
12888, 48.50068780, -12.01828338
12889, 49.00216204, -11.53563939
12890, 49.00108102, -12.01781969
12891, 48.50190237, -11.05496216
12892, 49.00387011, -10.57161950
12893, 49.00301608, -11.05362945
12894, 48.00121457, -10.57514033
12895, 48.00068780, -11.53751415
12896, 48.00095119, -11.05632724
12897, 48.00034390, -12.01875707
12898, 55.50055240, 12.01670948
12899, 55.00084751, 11.53246515
12900, 54.50029511, 12.01575567
12901, 55.00042375, 12.01623257
12902, 54.00003729, 11.53061978
12903, 54.00001864, 12.01530989
12904, 54.50106686, 11.04755696
12905, 54.00044681, 10.56204922
12906, 54.00024205, 11.04633450
12907, 55.00207073, 10.56537000
12908, 55.50185138, 11.05027818
12909, 55.00145912, 11.04891757
12910, 56.00092439, 11.53467153
12911, 56.50120244, 11.05399194
12912, 56.00152691, 11.05213506
12913, 57.00037199, 11.53719282
12914, 57.00060122, 11.05584213
12915, 56.50037199, 12.01796205
12916, 57.00018600, 12.01859641
12917, 56.00046220, 12.01733577
12918, 49.50562809, -9.12587421
12919, 49.00433240, -9.60906321
12920, 48.50240789, -9.13011703
12921, 49.00401799, -9.12799562
12922, 48.00133874, -9.61324707
12923, 48.00120395, -9.13236621
12924, 48.50255331, -10.09223355
12925, 48.00127665, -10.09419370
12926, 49.50564920, -10.08844917
12927, 49.00410126, -10.09034136
12928, 53.50486012, 6.22994466
12929, 53.00175807, 5.75070834
12930, 52.49749576, 6.22950736
12931, 53.00059782, 6.70874368
12932, 53.00117794, 6.22972601
12933, 51.99329023, 6.70897142
12934, 51.99427557, 5.75086567
12935, 51.99378290, 6.22991854
12936, 52.49858657, 5.27144957
12937, 51.99461793, 5.27182213
12938, 53.50648860, 5.27176343
12939, 53.00253759, 5.27160650
12940, 50.49191274, 10.08172003
12941, 49.99092816, 9.60125916
12942, 49.99208833, 10.08358911
12943, 50.48948707, 9.11714032
12944, 49.98818206, 8.63751839
12945, 49.98955511, 9.11938877
12946, 50.98932770, 8.63302711
12947, 50.99151385, 9.59735421
12948, 51.49135448, 9.11324100
12949, 50.99042077, 9.11519066
12950, 51.49297386, 10.07827124
12951, 50.99244330, 10.07999563
12952, 54.51628154, -10.08501232
12953, 55.01692340, -9.60449006
12954, 55.01483109, -10.08630772
12955, 54.52057349, -9.12158452
12956, 55.02096757, -8.64166506
12957, 55.01894548, -9.12307756
12958, 54.02312242, -8.63888181
12959, 54.01915518, -9.60196051
12960, 53.52170410, -9.11925780
12961, 54.02113880, -9.12042116
12962, 53.51778711, -10.08278917
12963, 54.01703432, -10.08390074
12964, 51.49040438, 8.15047095
12965, 50.98885422, 7.67194099
12966, 50.48777753, 8.15449715
12967, 50.98909096, 8.15248405
12968, 49.98713874, 7.67623756
12969, 49.98766040, 8.15687797
12970, 50.48671010, 7.19360827
12971, 49.98639310, 7.19592279
12972, 51.48997116, 7.18970589
12973, 50.98834063, 7.19165708
12974, 53.52360135, -8.15754771
12975, 54.02357828, -7.67846242
12976, 54.52309934, -8.15979652
12977, 54.02335035, -8.15867212
12978, 55.02212221, -7.68094793
12979, 55.02154489, -8.16130650
12980, 54.52404082, -7.19939983
12981, 55.02273040, -7.20078536
12982, 53.52380173, -7.19737131
12983, 54.02392127, -7.19838557
12984, 55.00946107, 6.71476816
12985, 54.50728652, 7.19288496
12986, 55.00686880, 7.67550980
12987, 55.00816494, 7.19513898
12988, 54.50527242, 8.15368919
12989, 55.00525597, 8.63676535
12990, 55.00606238, 8.15613757
12991, 54.00270442, 8.63223188
12992, 54.00416894, 7.67124885
12993, 53.50160094, 8.14979154
12994, 54.00343668, 8.15174036
12995, 53.50323973, 7.18916628
12996, 54.00635732, 6.71080239
12997, 54.00526313, 7.19102562
12998, 54.50918901, 6.23316577
12999, 54.00769181, 5.75230803
13000, 54.00702457, 6.23155521
13001, 54.51098423, 5.27430452
13002, 54.00873642, 5.27303398
13003, 55.01067842, 5.75556776
13004, 55.01178233, 5.27602231
13005, 55.01006975, 6.23516796
13006, 52.99833477, 8.63030393
13007, 52.49582214, 9.11256830
13008, 52.99781731, 9.59484466
13009, 53.50032993, 9.11258029
13010, 52.99807604, 9.11257429
13011, 53.49953467, 10.07771015
13012, 52.49619841, 10.07759365
13013, 52.99786654, 10.07765190
13014, 51.99407742, 9.59513784
13015, 51.99458614, 10.07793244
13016, 51.99309920, 8.63067146
13017, 51.99358831, 9.11290465
13018, 54.50351646, 9.11635553
13019, 55.00323942, 9.60059041
13020, 55.00424769, 9.11867788
13021, 54.50205410, 10.08104300
13022, 55.00265507, 10.08298020
13023, 54.00114197, 9.59670393
13024, 54.00079439, 10.07937657
13025, 54.00192320, 9.11446791
13026, 52.51572812, -10.08295651
13027, 53.01860824, -9.60090408
13028, 53.01675761, -10.08287284
13029, 52.51852589, -9.11950278
13030, 53.02162175, -8.63785649
13031, 53.02011500, -9.11938029
13032, 52.01746591, -8.63843098
13033, 52.01578372, -9.60132944
13034, 51.51472373, -9.12025764
13035, 52.01662481, -9.11988021
13036, 51.51301275, -10.08355215
13037, 52.01437043, -10.08325433
13038, 50.00747689, -8.64321976
13039, 50.50970821, -9.12296185
13040, 50.00785941, -9.60561630
13041, 50.00766815, -9.12441803
13042, 50.50900705, -10.08591118
13043, 50.00732813, -10.08718017
13044, 51.01195705, -9.60294511
13045, 51.01100990, -10.08473167
13046, 51.01247489, -8.64027438
13047, 51.01221597, -9.12160974
13048, 52.99924169, 7.66922192
13049, 52.49597552, 8.14973431
13050, 52.99878823, 8.14976293
13051, 51.99328070, 7.66953380
13052, 51.99318995, 8.15010263
13053, 52.49659977, 7.18879933
13054, 51.99328547, 7.18925261
13055, 52.99991975, 7.18898280
13056, 51.51442105, -8.15868345
13057, 52.01633701, -7.67804917
13058, 52.51938187, -8.15779669
13059, 52.01690146, -8.15824007
13060, 53.02136147, -7.67748792
13061, 53.02149161, -8.15767220
13062, 52.51855699, -7.19752391
13063, 53.02117936, -7.19744761
13064, 51.51234236, -7.19844639
13065, 52.01544967, -7.19798515
13066, 51.01067847, -7.67976664
13067, 50.50626246, -7.20084056
13068, 51.00930241, -7.19964348
13069, 50.00552437, -7.68246460
13070, 50.00394660, -7.20224931
13071, 50.50873231, -8.16135757
13072, 50.00650063, -8.16284218
13073, 51.01157668, -8.16002051
*element, type=CPS4, elSet=all, provider=edelweiss
917, 1073, 1074, 1070, 854
918, 1074, 1071, 895, 1070
919, 1072, 896, 1071, 1074
920, 893, 1072, 1074, 1073
921, 254, 1077, 1075, 255
922, 1077, 1072, 893, 1075
923, 1076, 896, 1072, 1077
924, 253, 1076, 1077, 254
925, 1079, 1080, 252, 251
926, 1080, 1076, 253, 252
927, 1078, 896, 1076, 1080
928, 894, 1078, 1080, 1079
929, 1082, 1083, 1081, 855
930, 1083, 1078, 894, 1081
931, 1071, 896, 1078, 1083
932, 895, 1071, 1083, 1082
933, 1087, 1088, 1084, 851
934, 1088, 1085, 899, 1084
935, 1086, 900, 1085, 1088
936, 897, 1086, 1088, 1087
937, 1091, 1092, 1089, 853
938, 1092, 1086, 897, 1089
939, 1090, 900, 1086, 1092
940, 898, 1090, 1092, 1091
941, 235, 1095, 1093, 236
942, 1095, 1090, 898, 1093
943, 1094, 900, 1090, 1095
944, 234, 1094, 1095, 235
945, 1096, 1097, 233, 232
946, 1097, 1094, 234, 233
947, 1085, 900, 1094, 1097
948, 899, 1085, 1097, 1096
949, 1101, 1102, 1098, 866
950, 1102, 1099, 904, 1098
951, 1100, 905, 1099, 1102
952, 901, 1100, 1102, 1101
953, 1105, 1106, 1103, 886
954, 1106, 1100, 901, 1103
955, 1104, 905, 1100, 1106
956, 902, 1104, 1106, 1105
957, 1109, 1110, 1107, 858
958, 1110, 1104, 902, 1107
959, 1108, 905, 1104, 1110
960, 903, 1108, 1110, 1109
961, 1112, 1113, 1111, 847
962, 1113, 1108, 903, 1111
963, 1099, 905, 1108, 1113
964, 904, 1099, 1113, 1112
965, 1117, 1118, 1114, 859
966, 1118, 1115, 908, 1114
967, 1116, 909, 1115, 1118
968, 906, 1116, 1118, 1117
969, 1121, 1122, 1119, 860
970, 1122, 1116, 906, 1119
971, 1120, 909, 1116, 1122
972, 907, 1120, 1122, 1121
973, 215, 1125, 1123, 216
974, 1125, 1120, 907, 1123
975, 1124, 909, 1120, 1125
976, 214, 1124, 1125, 215
977, 1126, 1127, 213, 212
978, 1127, 1124, 214, 213
979, 1115, 909, 1124, 1127
980, 908, 1115, 1127, 1126
981, 1130, 1131, 103, 104
982, 1131, 1128, 102, 103
983, 1129, 913, 1128, 1131
984, 910, 1129, 1131, 1130
985, 1134, 1135, 1132, 845
986, 1135, 1129, 910, 1132
987, 1133, 913, 1129, 1135
988, 911, 1133, 1135, 1134
989, 1138, 1139, 1136, 874
990, 1139, 1133, 911, 1136
991, 1137, 913, 1133, 1139
992, 912, 1137, 1139, 1138
993, 101, 1141, 1140, 100
994, 1141, 1137, 912, 1140
995, 1128, 913, 1137, 1141
996, 102, 1128, 1141, 101
997, 1144, 1145, 1138, 874
998, 1145, 1142, 912, 1138
999, 1143, 916, 1142, 1145
1000, 914, 1143, 1145, 1144
1001, 1148, 1149, 1146, 847
1002, 1149, 1143, 914, 1146
1003, 1147, 916, 1143, 1149
1004, 915, 1147, 1149, 1148
1005, 97, 1152, 1150, 96
1006, 1152, 1147, 915, 1150
1007, 1151, 916, 1147, 1152
1008, 98, 1151, 1152, 97
1009, 1140, 1153, 99, 100
1010, 1153, 1151, 98, 99
1011, 1142, 916, 1151, 1153
1012, 912, 1142, 1153, 1140
1013, 1156, 1157, 1117, 859
1014, 1157, 1154, 906, 1117
1015, 1155, 920, 1154, 1157
1016, 917, 1155, 1157, 1156
1017, 1160, 1161, 1158, 876
1018, 1161, 1155, 917, 1158
1019, 1159, 920, 1155, 1161
1020, 918, 1159, 1161, 1160
1021, 1164, 1165, 1162, 885
1022, 1165, 1159, 918, 1162
1023, 1163, 920, 1159, 1165
1024, 919, 1163, 1165, 1164
1025, 1119, 1167, 1166, 860
1026, 1167, 1163, 919, 1166
1027, 1154, 920, 1163, 1167
1028, 906, 1154, 1167, 1119
1029, 1170, 1171, 1109, 858
1030, 1171, 1168, 903, 1109
1031, 1169, 922, 1168, 1171
1032, 921, 1169, 1171, 1170
1033, 93, 1174, 1172, 92
1034, 1174, 1169, 921, 1172
1035, 1173, 922, 1169, 1174
1036, 94, 1173, 1174, 93
1037, 1150, 1176, 95, 96
1038, 1176, 1173, 94, 95
1039, 1175, 922, 1173, 1176
1040, 915, 1175, 1176, 1150
1041, 1111, 1177, 1148, 847
1042, 1177, 1175, 915, 1148
1043, 1168, 922, 1175, 1177
1044, 903, 1168, 1177, 1111
1045, 1172, 1180, 91, 92
1046, 1180, 1178, 90, 91
1047, 1179, 925, 1178, 1180
1048, 921, 1179, 1180, 1172
1049, 1182, 1183, 1170, 858
1050, 1183, 1179, 921, 1170
1051, 1181, 925, 1179, 1183
1052, 923, 1181, 1183, 1182
1053, 1186, 1187, 1184, 872
1054, 1187, 1181, 923, 1184
1055, 1185, 925, 1181, 1187
1056, 924, 1185, 1187, 1186
1057, 89, 1189, 1188, 88
1058, 1189, 1185, 924, 1188
1059, 1178, 925, 1185, 1189
1060, 90, 1178, 1189, 89
1061, 219, 1193, 1190, 220
1062, 1193, 1191, 927, 1190
1063, 1192, 928, 1191, 1193
1064, 218, 1192, 1193, 219
1065, 1123, 1195, 217, 216
1066, 1195, 1192, 218, 217
1067, 1194, 928, 1192, 1195
1068, 907, 1194, 1195, 1123
1069, 1197, 1198, 1121, 860
1070, 1198, 1194, 907, 1121
1071, 1196, 928, 1194, 1198
1072, 926, 1196, 1198, 1197
1073, 1200, 1201, 1199, 873
1074, 1201, 1196, 926, 1199
1075, 1191, 928, 1196, 1201
1076, 927, 1191, 1201, 1200
1077, 1205, 1206, 1202, 879
1078, 1206, 1203, 930, 1202
1079, 1204, 931, 1203, 1206
1080, 929, 1204, 1206, 1205
1081, 1132, 1209, 1207, 845
1082, 1209, 1204, 929, 1207
1083, 1208, 931, 1204, 1209
1084, 910, 1208, 1209, 1132
1085, 105, 1211, 1130, 104
1086, 1211, 1208, 910, 1130
1087, 1210, 931, 1208, 1211
1088, 106, 1210, 1211, 105
1089, 1212, 1213, 107, 108
1090, 1213, 1210, 106, 107
1091, 1203, 931, 1210, 1213
1092, 930, 1203, 1213, 1212
1093, 227, 1217, 1214, 228
1094, 1217, 1215, 934, 1214
1095, 1216, 935, 1215, 1217
1096, 226, 1216, 1217, 227
1097, 1219, 1220, 225, 224
1098, 1220, 1216, 226, 225
1099, 1218, 935, 1216, 1220
1100, 932, 1218, 1220, 1219
1101, 1223, 1224, 1221, 848
1102, 1224, 1218, 932, 1221
1103, 1222, 935, 1218, 1224
1104, 933, 1222, 1224, 1223
1105, 1226, 1227, 1225, 875
1106, 1227, 1222, 933, 1225
1107, 1215, 935, 1222, 1227
1108, 934, 1215, 1227, 1226
1109, 1230, 1231, 1144, 874
1110, 1231, 1228, 914, 1144
1111, 1229, 938, 1228, 1231
1112, 936, 1229, 1231, 1230
1113, 1234, 1235, 1232, 889
1114, 1235, 1229, 936, 1232
1115, 1233, 938, 1229, 1235
1116, 937, 1233, 1235, 1234
1117, 1098, 1238, 1236, 866
1118, 1238, 1233, 937, 1236
1119, 1237, 938, 1233, 1238
1120, 904, 1237, 1238, 1098
1121, 1146, 1239, 1112, 847
1122, 1239, 1237, 904, 1112
1123, 1228, 938, 1237, 1239
1124, 914, 1228, 1239, 1146
1125, 1242, 1243, 111, 112
1126, 1243, 1240, 110, 111
1127, 1241, 941, 1240, 1243
1128, 939, 1241, 1243, 1242
1129, 1246, 1247, 1244, 864
1130, 1247, 1241, 939, 1244
1131, 1245, 941, 1241, 1247
1132, 940, 1245, 1247, 1246
1133, 1202, 1250, 1248, 879
1134, 1250, 1245, 940, 1248
1135, 1249, 941, 1245, 1250
1136, 930, 1249, 1250, 1202
1137, 109, 1251, 1212, 108
1138, 1251, 1249, 930, 1212
1139, 1240, 941, 1249, 1251
1140, 110, 1240, 1251, 109
1141, 1236, 1255, 1252, 866
1142, 1255, 1253, 944, 1252
1143, 1254, 945, 1253, 1255
1144, 937, 1254, 1255, 1236
1145, 1257, 1258, 1234, 889
1146, 1258, 1254, 937, 1234
1147, 1256, 945, 1254, 1258
1148, 942, 1256, 1258, 1257
1149, 1261, 1262, 1259, 888
1150, 1262, 1256, 942, 1259
1151, 1260, 945, 1256, 1262
1152, 943, 1260, 1262, 1261
1153, 1264, 1265, 1263, 882
1154, 1265, 1260, 943, 1263
1155, 1253, 945, 1260, 1265
1156, 944, 1253, 1265, 1264
1157, 1268, 1269, 1264, 882
1158, 1269, 1266, 944, 1264
1159, 1267, 948, 1266, 1269
1160, 946, 1267, 1269, 1268
1161, 1272, 1273, 1270, 885
1162, 1273, 1267, 946, 1270
1163, 1271, 948, 1267, 1273
1164, 947, 1271, 1273, 1272
1165, 1103, 1276, 1274, 886
1166, 1276, 1271, 947, 1274
1167, 1275, 948, 1271, 1276
1168, 901, 1275, 1276, 1103
1169, 1252, 1277, 1101, 866
1170, 1277, 1275, 901, 1101
1171, 1266, 948, 1275, 1277
1172, 944, 1266, 1277, 1252
1173, 1190, 1280, 221, 220
1174, 1280, 1278, 222, 221
1175, 1279, 950, 1278, 1280
1176, 927, 1279, 1280, 1190
1177, 1282, 1283, 1200, 873
1178, 1283, 1279, 927, 1200
1179, 1281, 950, 1279, 1283
1180, 949, 1281, 1283, 1282
1181, 1221, 1286, 1284, 848
1182, 1286, 1281, 949, 1284
1183, 1285, 950, 1281, 1286
1184, 932, 1285, 1286, 1221
1185, 223, 1287, 1219, 224
1186, 1287, 1285, 932, 1219
1187, 1278, 950, 1285, 1287
1188, 222, 1278, 1287, 223
1189, 1291, 1292, 1288, 849
1190, 1292, 1289, 953, 1288
1191, 1290, 954, 1289, 1292
1192, 951, 1290, 1292, 1291
1193, 1295, 1296, 1293, 877
1194, 1296, 1290, 951, 1293
1195, 1294, 954, 1290, 1296
1196, 952, 1294, 1296, 1295
1197, 203, 1299, 1297, 204
1198, 1299, 1294, 952, 1297
1199, 1298, 954, 1294, 1299
1200, 202, 1298, 1299, 203
1201, 1300, 1301, 201, 200
1202, 1301, 1298, 202, 201
1203, 1289, 954, 1298, 1301
1204, 953, 1289, 1301, 1300
1205, 1297, 1304, 205, 204
1206, 1304, 1302, 206, 205
1207, 1303, 957, 1302, 1304
1208, 952, 1303, 1304, 1297
1209, 1306, 1307, 1295, 877
1210, 1307, 1303, 952, 1295
1211, 1305, 957, 1303, 1307
1212, 955, 1305, 1307, 1306
1213, 1310, 1311, 1308, 850
1214, 1311, 1305, 955, 1308
1215, 1309, 957, 1305, 1311
1216, 956, 1309, 1311, 1310
1217, 207, 1313, 1312, 208
1218, 1313, 1309, 956, 1312
1219, 1302, 957, 1309, 1313
1220, 206, 1302, 1313, 207
1221, 1316, 1317, 1310, 850
1222, 1317, 1314, 956, 1310
1223, 1315, 959, 1314, 1317
1224, 958, 1315, 1317, 1316
1225, 1114, 1320, 1318, 859
1226, 1320, 1315, 958, 1318
1227, 1319, 959, 1315, 1320
1228, 908, 1319, 1320, 1114
1229, 211, 1322, 1126, 212
1230, 1322, 1319, 908, 1126
1231, 1321, 959, 1319, 1322
1232, 210, 1321, 1322, 211
1233, 1312, 1323, 209, 208
1234, 1323, 1321, 210, 209
1235, 1314, 959, 1321, 1323
1236, 956, 1314, 1323, 1312
1237, 1084, 1327, 1324, 851
1238, 1327, 1325, 960, 1324
1239, 1326, 961, 1325, 1327
1240, 899, 1326, 1327, 1084
1241, 231, 1329, 1096, 232
1242, 1329, 1326, 899, 1096
1243, 1328, 961, 1326, 1329
1244, 230, 1328, 1329, 231
1245, 1214, 1331, 229, 228
1246, 1331, 1328, 230, 229
1247, 1330, 961, 1328, 1331
1248, 934, 1330, 1331, 1214
1249, 1332, 1333, 1226, 875
1250, 1333, 1330, 934, 1226
1251, 1325, 961, 1330, 1333
1252, 960, 1325, 1333, 1332
1253, 1336, 1337, 1316, 850
1254, 1337, 1334, 958, 1316
1255, 1335, 964, 1334, 1337
1256, 962, 1335, 1337, 1336
1257, 1340, 1341, 1338, 865
1258, 1341, 1335, 962, 1338
1259, 1339, 964, 1335, 1341
1260, 963, 1339, 1341, 1340
1261, 1158, 1344, 1342, 876
1262, 1344, 1339, 963, 1342
1263, 1343, 964, 1339, 1344
1264, 917, 1343, 1344, 1158
1265, 1318, 1345, 1156, 859
1266, 1345, 1343, 917, 1156
1267, 1334, 964, 1343, 1345
1268, 958, 1334, 1345, 1318
1269, 85, 1349, 1346, 84
1270, 1349, 1347, 966, 1346
1271, 1348, 967, 1347, 1349
1272, 86, 1348, 1349, 85
1273, 1188, 1351, 87, 88
1274, 1351, 1348, 86, 87
1275, 1350, 967, 1348, 1351
1276, 924, 1350, 1351, 1188
1277, 1353, 1354, 1186, 872
1278, 1354, 1350, 924, 1186
1279, 1352, 967, 1350, 1354
1280, 965, 1352, 1354, 1353
1281, 1356, 1357, 1355, 846
1282, 1357, 1352, 965, 1355
1283, 1347, 967, 1352, 1357
1284, 966, 1347, 1357, 1356
1285, 1360, 1361, 1282, 873
1286, 1361, 1358, 949, 1282
1287, 1359, 970, 1358, 1361
1288, 968, 1359, 1361, 1360
1289, 1263, 1364, 1362, 882
1290, 1364, 1359, 968, 1362
1291, 1363, 970, 1359, 1364
1292, 943, 1363, 1364, 1263
1293, 1366, 1367, 1261, 888
1294, 1367, 1363, 943, 1261
1295, 1365, 970, 1363, 1367
1296, 969, 1365, 1367, 1366
1297, 1284, 1369, 1368, 848
1298, 1369, 1365, 969, 1368
1299, 1358, 970, 1365, 1369
1300, 949, 1358, 1369, 1284
1301, 1199, 1372, 1360, 873
1302, 1372, 1370, 968, 1360
1303, 1371, 971, 1370, 1372
1304, 926, 1371, 1372, 1199
1305, 1166, 1374, 1197, 860
1306, 1374, 1371, 926, 1197
1307, 1373, 971, 1371, 1374
1308, 919, 1373, 1374, 1166
1309, 1270, 1376, 1164, 885
1310, 1376, 1373, 919, 1164
1311, 1375, 971, 1373, 1376
1312, 946, 1375, 1376, 1270
1313, 1362, 1377, 1268, 882
1314, 1377, 1375, 946, 1268
1315, 1370, 971, 1375, 1377
1316, 968, 1370, 1377, 1362
1317, 1184, 1381, 1378, 872
1318, 1381, 1379, 973, 1378
1319, 1380, 974, 1379, 1381
1320, 923, 1380, 1381, 1184
1321, 1107, 1383, 1182, 858
1322, 1383, 1380, 923, 1182
1323, 1382, 974, 1380, 1383
1324, 902, 1382, 1383, 1107
1325, 1385, 1386, 1105, 886
1326, 1386, 1382, 902, 1105
1327, 1384, 974, 1382, 1386
1328, 972, 1384, 1386, 1385
1329, 1388, 1389, 1387, 881
1330, 1389, 1384, 972, 1387
1331, 1379, 974, 1384, 1389
1332, 973, 1379, 1389, 1388
1333, 1392, 1393, 1134, 845
1334, 1393, 1390, 911, 1134
1335, 1391, 977, 1390, 1393
1336, 975, 1391, 1393, 1392
1337, 1396, 1397, 1394, 887
1338, 1397, 1391, 975, 1394
1339, 1395, 977, 1391, 1397
1340, 976, 1395, 1397, 1396
1341, 1232, 1400, 1398, 889
1342, 1400, 1395, 976, 1398
1343, 1399, 977, 1395, 1400
1344, 936, 1399, 1400, 1232
1345, 1136, 1401, 1230, 874
1346, 1401, 1399, 936, 1230
1347, 1390, 977, 1399, 1401
1348, 911, 1390, 1401, 1136
1349, 1387, 1405, 1402, 881
1350, 1405, 1403, 978, 1402
1351, 1404, 979, 1403, 1405
1352, 972, 1404, 1405, 1387
1353, 1274, 1407, 1385, 886
1354, 1407, 1404, 972, 1385
1355, 1406, 979, 1404, 1407
1356, 947, 1406, 1407, 1274
1357, 1162, 1409, 1272, 885
1358, 1409, 1406, 947, 1272
1359, 1408, 979, 1406, 1409
1360, 918, 1408, 1409, 1162
1361, 1410, 1411, 1160, 876
1362, 1411, 1408, 918, 1160
1363, 1403, 979, 1408, 1411
1364, 978, 1403, 1411, 1410
1365, 1415, 1416, 1412, 891
1366, 1416, 1413, 983, 1412
1367, 1414, 984, 1413, 1416
1368, 980, 1414, 1416, 1415
1369, 1419, 1420, 1417, 892
1370, 1420, 1414, 980, 1417
1371, 1418, 984, 1414, 1420
1372, 981, 1418, 1420, 1419
1373, 1423, 1424, 1421, 867
1374, 1424, 1418, 981, 1421
1375, 1422, 984, 1418, 1424
1376, 982, 1422, 1424, 1423
1377, 1426, 1427, 1425, 868
1378, 1427, 1422, 982, 1425
1379, 1413, 984, 1422, 1427
1380, 983, 1413, 1427, 1426
1381, 81, 1431, 1428, 80
1382, 1431, 1429, 986, 1428
1383, 1430, 987, 1429, 1431
1384, 82, 1430, 1431, 81
1385, 1346, 1433, 83, 84
1386, 1433, 1430, 82, 83
1387, 1432, 987, 1430, 1433
1388, 966, 1432, 1433, 1346
1389, 1435, 1436, 1356, 846
1390, 1436, 1432, 966, 1356
1391, 1434, 987, 1432, 1436
1392, 985, 1434, 1436, 1435
1393, 1438, 1439, 1437, 878
1394, 1439, 1434, 985, 1437
1395, 1429, 987, 1434, 1439
1396, 986, 1429, 1439, 1438
1397, 1442, 1443, 1332, 875
1398, 1443, 1440, 960, 1332
1399, 1441, 991, 1440, 1443
1400, 988, 1441, 1443, 1442
1401, 1446, 1447, 1444, 890
1402, 1447, 1441, 988, 1444
1403, 1445, 991, 1441, 1447
1404, 989, 1445, 1447, 1446
1405, 1450, 1451, 1448, 870
1406, 1451, 1445, 989, 1448
1407, 1449, 991, 1445, 1451
1408, 990, 1449, 1451, 1450
1409, 1324, 1453, 1452, 851
1410, 1453, 1449, 990, 1452
1411, 1440, 991, 1449, 1453
1412, 960, 1440, 1453, 1324
1413, 1368, 1456, 1223, 848
1414, 1456, 1454, 933, 1223
1415, 1455, 993, 1454, 1456
1416, 969, 1455, 1456, 1368
1417, 1458, 1459, 1366, 888
1418, 1459, 1455, 969, 1366
1419, 1457, 993, 1455, 1459
1420, 992, 1457, 1459, 1458
1421, 1444, 1462, 1460, 890
1422, 1462, 1457, 992, 1460
1423, 1461, 993, 1457, 1462
1424, 988, 1461, 1462, 1444
1425, 1225, 1463, 1442, 875
1426, 1463, 1461, 988, 1442
1427, 1454, 993, 1461, 1463
1428, 933, 1454, 1463, 1225
1429, 1398, 1466, 1257, 889
1430, 1466, 1464, 942, 1257
1431, 1465, 995, 1464, 1466
1432, 976, 1465, 1466, 1398
1433, 1468, 1469, 1396, 887
1434, 1469, 1465, 976, 1396
1435, 1467, 995, 1465, 1469
1436, 994, 1467, 1469, 1468
1437, 1460, 1472, 1470, 890
1438, 1472, 1467, 994, 1470
1439, 1471, 995, 1467, 1472
1440, 992, 1471, 1472, 1460
1441, 1259, 1473, 1458, 888
1442, 1473, 1471, 992, 1458
1443, 1464, 995, 1471, 1473
1444, 942, 1464, 1473, 1259
1445, 1394, 1477, 1474, 887
1446, 1477, 1475, 997, 1474
1447, 1476, 998, 1475, 1477
1448, 975, 1476, 1477, 1394
1449, 1207, 1479, 1392, 845
1450, 1479, 1476, 975, 1392
1451, 1478, 998, 1476, 1479
1452, 929, 1478, 1479, 1207
1453, 1481, 1482, 1205, 879
1454, 1482, 1478, 929, 1205
1455, 1480, 998, 1478, 1482
1456, 996, 1480, 1482, 1481
1457, 1484, 1485, 1483, 884
1458, 1485, 1480, 996, 1483
1459, 1475, 998, 1480, 1485
1460, 997, 1475, 1485, 1484
1461, 1378, 1488, 1353, 872
1462, 1488, 1486, 965, 1353
1463, 1487, 1001, 1486, 1488
1464, 973, 1487, 1488, 1378
1465, 1490, 1491, 1388, 881
1466, 1491, 1487, 973, 1388
1467, 1489, 1001, 1487, 1491
1468, 999, 1489, 1491, 1490
1469, 1494, 1495, 1492, 883
1470, 1495, 1489, 999, 1492
1471, 1493, 1001, 1489, 1495
1472, 1000, 1493, 1495, 1494
1473, 1355, 1497, 1496, 846
1474, 1497, 1493, 1000, 1496
1475, 1486, 1001, 1493, 1497
1476, 965, 1486, 1497, 1355
1477, 1342, 1500, 1410, 876
1478, 1500, 1498, 978, 1410
1479, 1499, 1003, 1498, 1500
1480, 963, 1499, 1500, 1342
1481, 1502, 1503, 1340, 865
1482, 1503, 1499, 963, 1340
1483, 1501, 1003, 1499, 1503
1484, 1002, 1501, 1503, 1502
1485, 1492, 1506, 1504, 883
1486, 1506, 1501, 1002, 1504
1487, 1505, 1003, 1501, 1506
1488, 999, 1505, 1506, 1492
1489, 1402, 1507, 1490, 881
1490, 1507, 1505, 999, 1490
1491, 1498, 1003, 1505, 1507
1492, 978, 1498, 1507, 1402
1493, 1474, 1510, 1468, 887
1494, 1510, 1508, 994, 1468
1495, 1509, 1005, 1508, 1510
1496, 997, 1509, 1510, 1474
1497, 1512, 1513, 1484, 884
1498, 1513, 1509, 997, 1484
1499, 1511, 1005, 1509, 1513
1500, 1004, 1511, 1513, 1512
1501, 1448, 1516, 1514, 870
1502, 1516, 1511, 1004, 1514
1503, 1515, 1005, 1511, 1516
1504, 989, 1515, 1516, 1448
1505, 1470, 1517, 1446, 890
1506, 1517, 1515, 989, 1446
1507, 1508, 1005, 1515, 1517
1508, 994, 1508, 1517, 1470
1509, 1521, 1522, 1518, 856
1510, 1522, 1519, 1007, 1518
1511, 1520, 1008, 1519, 1522
1512, 1006, 1520, 1522, 1521
1513, 77, 1525, 1523, 76
1514, 1525, 1520, 1006, 1523
1515, 1524, 1008, 1520, 1525
1516, 78, 1524, 1525, 77
1517, 1428, 1527, 79, 80
1518, 1527, 1524, 78, 79
1519, 1526, 1008, 1524, 1527
1520, 986, 1526, 1527, 1428
1521, 1528, 1529, 1438, 878
1522, 1529, 1526, 986, 1438
1523, 1519, 1008, 1526, 1529
1524, 1007, 1519, 1529, 1528
1525, 273, 1533, 1530, 274
1526, 1533, 1531, 1011, 1530
1527, 1532, 1012, 1531, 1533
1528, 272, 1532, 1533, 273
1529, 1535, 1536, 271, 270
1530, 1536, 1532, 272, 271
1531, 1534, 1012, 1532, 1536
1532, 1009, 1534, 1536, 1535
1533, 1539, 1540, 1537, 852
1534, 1540, 1534, 1009, 1537
1535, 1538, 1012, 1534, 1540
1536, 1010, 1538, 1540, 1539
1537, 1542, 1543, 1541, 871
1538, 1543, 1538, 1010, 1541
1539, 1531, 1012, 1538, 1543
1540, 1011, 1531, 1543, 1542
1541, 1546, 1547, 1512, 884
1542, 1547, 1544, 1004, 1512
1543, 1545, 1016, 1544, 1547
1544, 1013, 1545, 1547, 1546
1545, 1550, 1551, 1548, 869
1546, 1551, 1545, 1013, 1548
1547, 1549, 1016, 1545, 1551
1548, 1014, 1549, 1551, 1550
1549, 1554, 1555, 1552, 880
1550, 1555, 1549, 1014, 1552
1551, 1553, 1016, 1549, 1555
1552, 1015, 1553, 1555, 1554
1553, 1514, 1557, 1556, 870
1554, 1557, 1553, 1015, 1556
1555, 1544, 1016, 1553, 1557
1556, 1004, 1544, 1557, 1514
1557, 1560, 1561, 1502, 865
1558, 1561, 1558, 1002, 1502
1559, 1559, 1019, 1558, 1561
1560, 1017, 1559, 1561, 1560
1561, 1417, 1564, 1562, 892
1562, 1564, 1559, 1017, 1562
1563, 1563, 1019, 1559, 1564
1564, 980, 1563, 1564, 1417
1565, 1566, 1567, 1415, 891
1566, 1567, 1563, 980, 1415
1567, 1565, 1019, 1563, 1567
1568, 1018, 1565, 1567, 1566
1569, 1504, 1569, 1568, 883
1570, 1569, 1565, 1018, 1568
1571, 1558, 1019, 1565, 1569
1572, 1002, 1558, 1569, 1504
1573, 1288, 1573, 1570, 849
1574, 1573, 1571, 1021, 1570
1575, 1572, 1022, 1571, 1573
1576, 953, 1572, 1573, 1288
1577, 199, 1575, 1300, 200
1578, 1575, 1572, 953, 1300
1579, 1574, 1022, 1572, 1575
1580, 198, 1574, 1575, 199
1581, 1577, 1578, 197, 196
1582, 1578, 1574, 198, 197
1583, 1576, 1022, 1574, 1578
1584, 1020, 1576, 1578, 1577
1585, 1580, 1581, 1579, 861
1586, 1581, 1576, 1020, 1579
1587, 1571, 1022, 1576, 1581
1588, 1021, 1571, 1581, 1580
1589, 73, 1585, 1582, 72
1590, 1585, 1583, 1024, 1582
1591, 1584, 1025, 1583, 1585
1592, 74, 1584, 1585, 73
1593, 1523, 1587, 75, 76
1594, 1587, 1584, 74, 75
1595, 1586, 1025, 1584, 1587
1596, 1006, 1586, 1587, 1523
1597, 1589, 1590, 1521, 856
1598, 1590, 1586, 1006, 1521
1599, 1588, 1025, 1586, 1590
1600, 1023, 1588, 1590, 1589
1601, 1592, 1593, 1591, 863
1602, 1593, 1588, 1023, 1591
1603, 1583, 1025, 1588, 1593
1604, 1024, 1583, 1593, 1592
1605, 239, 1597, 1594, 240
1606, 1597, 1595, 1027, 1594
1607, 1596, 1028, 1595, 1597
1608, 238, 1596, 1597, 239
1609, 1093, 1599, 237, 236
1610, 1599, 1596, 238, 237
1611, 1598, 1028, 1596, 1599
1612, 898, 1598, 1599, 1093
1613, 1601, 1602, 1091, 853
1614, 1602, 1598, 898, 1091
1615, 1600, 1028, 1598, 1602
1616, 1026, 1600, 1602, 1601
1617, 1604, 1605, 1603, 862
1618, 1605, 1600, 1026, 1603
1619, 1595, 1028, 1600, 1605
1620, 1027, 1595, 1605, 1604
1621, 1579, 1609, 1606, 861
1622, 1609, 1607, 1029, 1606
1623, 1608, 1030, 1607, 1609
1624, 1020, 1608, 1609, 1579
1625, 195, 1611, 1577, 196
1626, 1611, 1608, 1020, 1577
1627, 1610, 1030, 1608, 1611
1628, 194, 1610, 1611, 195
1629, 262, 1613, 193, 1
1630, 1613, 1610, 194, 193
1631, 1612, 1030, 1610, 1613
1632, 261, 1612, 1613, 262
1633, 1614, 1615, 260, 259
1634, 1615, 1612, 261, 260
1635, 1607, 1030, 1612, 1615
1636, 1029, 1607, 1615, 1614
1637, 69, 1618, 244, 3
1638, 1618, 1616, 245, 244
1639, 1617, 1032, 1616, 1618
1640, 70, 1617, 1618, 69
1641, 1582, 1620, 71, 72
1642, 1620, 1617, 70, 71
1643, 1619, 1032, 1617, 1620
1644, 1024, 1619, 1620, 1582
1645, 1622, 1623, 1592, 863
1646, 1623, 1619, 1024, 1592
1647, 1621, 1032, 1619, 1623
1648, 1031, 1621, 1623, 1622
1649, 246, 1625, 1624, 247
1650, 1625, 1621, 1031, 1624
1651, 1616, 1032, 1621, 1625
1652, 245, 1616, 1625, 246
1653, 243, 1628, 263, 2
1654, 1628, 1626, 264, 263
1655, 1627, 1034, 1626, 1628
1656, 242, 1627, 1628, 243
1657, 1594, 1630, 241, 240
1658, 1630, 1627, 242, 241
1659, 1629, 1034, 1627, 1630
1660, 1027, 1629, 1630, 1594
1661, 1632, 1633, 1604, 862
1662, 1633, 1629, 1027, 1604
1663, 1631, 1034, 1629, 1633
1664, 1033, 1631, 1633, 1632
1665, 265, 1635, 1634, 266
1666, 1635, 1631, 1033, 1634
1667, 1626, 1034, 1631, 1635
1668, 264, 1626, 1635, 265
1669, 1537, 1639, 1636, 852
1670, 1639, 1637, 1035, 1636
1671, 1638, 1036, 1637, 1639
1672, 1009, 1638, 1639, 1537
1673, 269, 1641, 1535, 270
1674, 1641, 1638, 1009, 1535
1675, 1640, 1036, 1638, 1641
1676, 268, 1640, 1641, 269
1677, 1634, 1643, 267, 266
1678, 1643, 1640, 268, 267
1679, 1642, 1036, 1640, 1643
1680, 1033, 1642, 1643, 1634
1681, 1644, 1645, 1632, 862
1682, 1645, 1642, 1033, 1632
1683, 1637, 1036, 1642, 1645
1684, 1035, 1637, 1645, 1644
1685, 1081, 1649, 1646, 855
1686, 1649, 1647, 1037, 1646
1687, 1648, 1038, 1647, 1649
1688, 894, 1648, 1649, 1081
1689, 250, 1651, 1079, 251
1690, 1651, 1648, 894, 1079
1691, 1650, 1038, 1648, 1651
1692, 249, 1650, 1651, 250
1693, 1624, 1653, 248, 247
1694, 1653, 1650, 249, 248
1695, 1652, 1038, 1650, 1653
1696, 1031, 1652, 1653, 1624
1697, 1654, 1655, 1622, 863
1698, 1655, 1652, 1031, 1622
1699, 1647, 1038, 1652, 1655
1700, 1037, 1647, 1655, 1654
1701, 258, 1658, 1614, 259
1702, 1658, 1656, 1029, 1614
1703, 1657, 1040, 1656, 1658
1704, 257, 1657, 1658, 258
1705, 1075, 1660, 256, 255
1706, 1660, 1657, 257, 256
1707, 1659, 1040, 1657, 1660
1708, 893, 1659, 1660, 1075
1709, 1662, 1663, 1073, 854
1710, 1663, 1659, 893, 1073
1711, 1661, 1040, 1659, 1663
1712, 1039, 1661, 1663, 1662
1713, 1606, 1665, 1664, 861
1714, 1665, 1661, 1039, 1664
1715, 1656, 1040, 1661, 1665
1716, 1029, 1656, 1665, 1606
1717, 277, 1669, 1666, 278
1718, 1669, 1667, 1042, 1666
1719, 1668, 1043, 1667, 1669
1720, 276, 1668, 1669, 277
1721, 1530, 1671, 275, 274
1722, 1671, 1668, 276, 275
1723, 1670, 1043, 1668, 1671
1724, 1011, 1670, 1671, 1530
1725, 1673, 1674, 1542, 871
1726, 1674, 1670, 1011, 1542
1727, 1672, 1043, 1670, 1674
1728, 1041, 1672, 1674, 1673
1729, 1676, 1677, 1675, 857
1730, 1677, 1672, 1041, 1675
1731, 1667, 1043, 1672, 1677
1732, 1042, 1667, 1677, 1676
1733, 1666, 1680, 279, 278
1734, 1680, 1678, 280, 279
1735, 1679, 1045, 1678, 1680
1736, 1042, 1679, 1680, 1666
1737, 1682, 1683, 1676, 857
1738, 1683, 1679, 1042, 1676
1739, 1681, 1045, 1679, 1683
1740, 1044, 1681, 1683, 1682
1741, 117, 1686, 1684, 116
1742, 1686, 1681, 1044, 1684
1743, 1685, 1045, 1681, 1686
1744, 118, 1685, 1686, 117
1745, 281, 1687, 119, 4
1746, 1687, 1685, 118, 119
1747, 1678, 1045, 1685, 1687
1748, 280, 1678, 1687, 281
1749, 1244, 1691, 1688, 864
1750, 1691, 1689, 1046, 1688
1751, 1690, 1047, 1689, 1691
1752, 939, 1690, 1691, 1244
1753, 113, 1693, 1242, 112
1754, 1693, 1690, 939, 1242
1755, 1692, 1047, 1690, 1693
1756, 114, 1692, 1693, 113
1757, 1684, 1695, 115, 116
1758, 1695, 1692, 114, 115
1759, 1694, 1047, 1692, 1695
1760, 1044, 1694, 1695, 1684
1761, 1696, 1697, 1682, 857
1762, 1697, 1694, 1044, 1682
1763, 1689, 1047, 1694, 1697
1764, 1046, 1689, 1697, 1696
1765, 1603, 1700, 1644, 862
1766, 1700, 1698, 1035, 1644
1767, 1699, 1050, 1698, 1700
1768, 1026, 1699, 1700, 1603
1769, 1702, 1703, 1601, 853
1770, 1703, 1699, 1026, 1601
1771, 1701, 1050, 1699, 1703
1772, 1048, 1701, 1703, 1702
1773, 1706, 1707, 1704, 880
1774, 1707, 1701, 1048, 1704
1775, 1705, 1050, 1701, 1707
1776, 1049, 1705, 1707, 1706
1777, 1636, 1709, 1708, 852
1778, 1709, 1705, 1049, 1708
1779, 1698, 1050, 1705, 1709
1780, 1035, 1698, 1709, 1636
1781, 1712, 1713, 1566, 891
1782, 1713, 1710, 1018, 1566
1783, 1711, 1052, 1710, 1713
1784, 1051, 1711, 1713, 1712
1785, 1437, 1716, 1714, 878
1786, 1716, 1711, 1051, 1714
1787, 1715, 1052, 1711, 1716
1788, 985, 1715, 1716, 1437
1789, 1496, 1718, 1435, 846
1790, 1718, 1715, 985, 1435
1791, 1717, 1052, 1715, 1718
1792, 1000, 1717, 1718, 1496
1793, 1568, 1719, 1494, 883
1794, 1719, 1717, 1000, 1494
1795, 1710, 1052, 1717, 1719
1796, 1018, 1710, 1719, 1568
1797, 1591, 1722, 1654, 863
1798, 1722, 1720, 1037, 1654
1799, 1721, 1055, 1720, 1722
1800, 1023, 1721, 1722, 1591
1801, 1724, 1725, 1589, 856
1802, 1725, 1721, 1023, 1589
1803, 1723, 1055, 1721, 1725
1804, 1053, 1723, 1725, 1724
1805, 1728, 1729, 1726, 868
1806, 1729, 1723, 1053, 1726
1807, 1727, 1055, 1723, 1729
1808, 1054, 1727, 1729, 1728
1809, 1646, 1731, 1730, 855
1810, 1731, 1727, 1054, 1730
1811, 1720, 1055, 1727, 1731
1812, 1037, 1720, 1731, 1646
1813, 1735, 1736, 1732, 867
1814, 1736, 1733, 1057, 1732
1815, 1734, 1058, 1733, 1736
1816, 1056, 1734, 1736, 1735
1817, 1570, 1739, 1737, 849
1818, 1739, 1734, 1056, 1737
1819, 1738, 1058, 1734, 1739
1820, 1021, 1738, 1739, 1570
1821, 1664, 1741, 1580, 861
1822, 1741, 1738, 1021, 1580
1823, 1740, 1058, 1738, 1741
1824, 1039, 1740, 1741, 1664
1825, 1742, 1743, 1662, 854
1826, 1743, 1740, 1039, 1662
1827, 1733, 1058, 1740, 1743
1828, 1057, 1733, 1743, 1742
1829, 1704, 1746, 1554, 880
1830, 1746, 1744, 1015, 1554
1831, 1745, 1059, 1744, 1746
1832, 1048, 1745, 1746, 1704
1833, 1089, 1748, 1702, 853
1834, 1748, 1745, 1048, 1702
1835, 1747, 1059, 1745, 1748
1836, 897, 1747, 1748, 1089
1837, 1452, 1750, 1087, 851
1838, 1750, 1747, 897, 1087
1839, 1749, 1059, 1747, 1750
1840, 990, 1749, 1750, 1452
1841, 1556, 1751, 1450, 870
1842, 1751, 1749, 990, 1450
1843, 1744, 1059, 1749, 1751
1844, 1015, 1744, 1751, 1556
1845, 1248, 1754, 1481, 879
1846, 1754, 1752, 996, 1481
1847, 1753, 1061, 1752, 1754
1848, 940, 1753, 1754, 1248
1849, 1756, 1757, 1246, 864
1850, 1757, 1753, 940, 1246
1851, 1755, 1061, 1753, 1757
1852, 1060, 1755, 1757, 1756
1853, 1548, 1760, 1758, 869
1854, 1760, 1755, 1060, 1758
1855, 1759, 1061, 1755, 1760
1856, 1013, 1759, 1760, 1548
1857, 1483, 1761, 1546, 884
1858, 1761, 1759, 1013, 1546
1859, 1752, 1061, 1759, 1761
1860, 996, 1752, 1761, 1483
1861, 1308, 1764, 1336, 850
1862, 1764, 1762, 962, 1336
1863, 1763, 1063, 1762, 1764
1864, 955, 1763, 1764, 1308
1865, 1766, 1767, 1306, 877
1866, 1767, 1763, 955, 1306
1867, 1765, 1063, 1763, 1767
1868, 1062, 1765, 1767, 1766
1869, 1562, 1770, 1768, 892
1870, 1770, 1765, 1062, 1768
1871, 1769, 1063, 1765, 1770
1872, 1017, 1769, 1770, 1562
1873, 1338, 1771, 1560, 865
1874, 1771, 1769, 1017, 1560
1875, 1762, 1063, 1769, 1771
1876, 962, 1762, 1771, 1338
1877, 1421, 1774, 1735, 867
1878, 1774, 1772, 1056, 1735
1879, 1773, 1064, 1772, 1774
1880, 981, 1773, 1774, 1421
1881, 1768, 1776, 1419, 892
1882, 1776, 1773, 981, 1419
1883, 1775, 1064, 1773, 1776
1884, 1062, 1775, 1776, 1768
1885, 1293, 1778, 1766, 877
1886, 1778, 1775, 1062, 1766
1887, 1777, 1064, 1775, 1778
1888, 951, 1777, 1778, 1293
1889, 1737, 1779, 1291, 849
1890, 1779, 1777, 951, 1291
1891, 1772, 1064, 1777, 1779
1892, 1056, 1772, 1779, 1737
1893, 1714, 1782, 1528, 878
1894, 1782, 1780, 1007, 1528
1895, 1781, 1065, 1780, 1782
1896, 1051, 1781, 1782, 1714
1897, 1412, 1784, 1712, 891
1898, 1784, 1781, 1051, 1712
1899, 1783, 1065, 1781, 1784
1900, 983, 1783, 1784, 1412
1901, 1726, 1786, 1426, 868
1902, 1786, 1783, 983, 1426
1903, 1785, 1065, 1783, 1786
1904, 1053, 1785, 1786, 1726
1905, 1518, 1787, 1724, 856
1906, 1787, 1785, 1053, 1724
1907, 1780, 1065, 1785, 1787
1908, 1007, 1780, 1787, 1518
1909, 1758, 1791, 1788, 869
1910, 1791, 1789, 1066, 1788
1911, 1790, 1067, 1789, 1791
1912, 1060, 1790, 1791, 1758
1913, 1688, 1793, 1756, 864
1914, 1793, 1790, 1060, 1756
1915, 1792, 1067, 1790, 1793
1916, 1046, 1792, 1793, 1688
1917, 1675, 1795, 1696, 857
1918, 1795, 1792, 1046, 1696
1919, 1794, 1067, 1792, 1795
1920, 1041, 1794, 1795, 1675
1921, 1796, 1797, 1673, 871
1922, 1797, 1794, 1041, 1673
1923, 1789, 1067, 1794, 1797
1924, 1066, 1789, 1797, 1796
1925, 1070, 1800, 1742, 854
1926, 1800, 1798, 1057, 1742
1927, 1799, 1068, 1798, 1800
1928, 895, 1799, 1800, 1070
1929, 1730, 1802, 1082, 855
1930, 1802, 1799, 895, 1082
1931, 1801, 1068, 1799, 1802
1932, 1054, 1801, 1802, 1730
1933, 1425, 1804, 1728, 868
1934, 1804, 1801, 1054, 1728
1935, 1803, 1068, 1801, 1804
1936, 982, 1803, 1804, 1425
1937, 1732, 1805, 1423, 867
1938, 1805, 1803, 982, 1423
1939, 1798, 1068, 1803, 1805
1940, 1057, 1798, 1805, 1732
1941, 1788, 1808, 1550, 869
1942, 1808, 1806, 1014, 1550
1943, 1807, 1069, 1806, 1808
1944, 1066, 1807, 1808, 1788
1945, 1541, 1810, 1796, 871
1946, 1810, 1807, 1066, 1796
1947, 1809, 1069, 1807, 1810
1948, 1010, 1809, 1810, 1541
1949, 1708, 1812, 1539, 852
1950, 1812, 1809, 1010, 1539
1951, 1811, 1069, 1809, 1812
1952, 1049, 1811, 1812, 1708
1953, 1552, 1813, 1706, 880
1954, 1813, 1811, 1049, 1706
1955, 1806, 1069, 1811, 1813
1956, 1014, 1806, 1813, 1552
1957, 3000, 3001, 2997, 1821
1958, 3001, 2998, 2083, 2997
1959, 2999, 2084, 2998, 3001
1960, 2081, 2999, 3001, 3000
1961, 3004, 3005, 3002, 1883
1962, 3005, 2999, 2081, 3002
1963, 3003, 2084, 2999, 3005
1964, 2082, 3003, 3005, 3004
1965, 3007, 3008, 3006, 2002
1966, 3008, 3003, 2082, 3006
1967, 2998, 2084, 3003, 3008
1968, 2083, 2998, 3008, 3007
1969, 3012, 3013, 3009, 1878
1970, 3013, 3010, 2087, 3009
1971, 3011, 2088, 3010, 3013
1972, 2085, 3011, 3013, 3012
1973, 3016, 3017, 3014, 1919
1974, 3017, 3011, 2085, 3014
1975, 3015, 2088, 3011, 3017
1976, 2086, 3015, 3017, 3016
1977, 3019, 3020, 3018, 1941
1978, 3020, 3015, 2086, 3018
1979, 3010, 2088, 3015, 3020
1980, 2087, 3010, 3020, 3019
1981, 340, 3024, 3021, 341
1982, 3024, 3022, 2090, 3021
1983, 3023, 2091, 3022, 3024
1984, 339, 3023, 3024, 340
1985, 3026, 3027, 338, 13
1986, 3027, 3023, 339, 338
1987, 3025, 2091, 3023, 3027
1988, 2089, 3025, 3027, 3026
1989, 3029, 3030, 3028, 1839
1990, 3030, 3025, 2089, 3028
1991, 3022, 2091, 3025, 3030
1992, 2090, 3022, 3030, 3029
1993, 3034, 3035, 3031, 2016
1994, 3035, 3032, 2094, 3031
1995, 3033, 2095, 3032, 3035
1996, 2092, 3033, 3035, 3034
1997, 3038, 3039, 3036, 2029
1998, 3039, 3033, 2092, 3036
1999, 3037, 2095, 3033, 3039
2000, 2093, 3037, 3039, 3038
2001, 3041, 3042, 3040, 2050
2002, 3042, 3037, 2093, 3040
2003, 3032, 2095, 3037, 3042
2004, 2094, 3032, 3042, 3041
2005, 3046, 3047, 3043, 1828
2006, 3047, 3044, 2098, 3043
2007, 3045, 2099, 3044, 3047
2008, 2096, 3045, 3047, 3046
2009, 3050, 3051, 3048, 1835
2010, 3051, 3045, 2096, 3048
2011, 3049, 2099, 3045, 3051
2012, 2097, 3049, 3051, 3050
2013, 3053, 3054, 3052, 1926
2014, 3054, 3049, 2097, 3052
2015, 3044, 2099, 3049, 3054
2016, 2098, 3044, 3054, 3053
2017, 3058, 3059, 3055, 1915
2018, 3059, 3056, 2102, 3055
2019, 3057, 2103, 3056, 3059
2020, 2100, 3057, 3059, 3058
2021, 3062, 3063, 3060, 1942
2022, 3063, 3057, 2100, 3060
2023, 3061, 2103, 3057, 3063
2024, 2101, 3061, 3063, 3062
2025, 3065, 3066, 3064, 1955
2026, 3066, 3061, 2101, 3064
2027, 3056, 2103, 3061, 3066
2028, 2102, 3056, 3066, 3065
2029, 395, 3070, 3067, 26
2030, 3070, 3068, 2105, 3067
2031, 3069, 2106, 3068, 3070
2032, 394, 3069, 3070, 395
2033, 3072, 3073, 393, 392
2034, 3073, 3069, 394, 393
2035, 3071, 2106, 3069, 3073
2036, 2104, 3071, 3073, 3072
2037, 3075, 3076, 3074, 1852
2038, 3076, 3071, 2104, 3074
2039, 3068, 2106, 3071, 3076
2040, 2105, 3068, 3076, 3075
2041, 3080, 3081, 3077, 1830
2042, 3081, 3078, 2109, 3077
2043, 3079, 2110, 3078, 3081
2044, 2107, 3079, 3081, 3080
2045, 3084, 3085, 3082, 1837
2046, 3085, 3079, 2107, 3082
2047, 3083, 2110, 3079, 3085
2048, 2108, 3083, 3085, 3084
2049, 3087, 3088, 3086, 1868
2050, 3088, 3083, 2108, 3086
2051, 3078, 2110, 3083, 3088
2052, 2109, 3078, 3088, 3087
2053, 3092, 3093, 3089, 1825
2054, 3093, 3090, 2113, 3089
2055, 3091, 2114, 3090, 3093
2056, 2111, 3091, 3093, 3092
2057, 3096, 3097, 3094, 1873
2058, 3097, 3091, 2111, 3094
2059, 3095, 2114, 3091, 3097
2060, 2112, 3095, 3097, 3096
2061, 3099, 3100, 3098, 1886
2062, 3100, 3095, 2112, 3098
2063, 3090, 2114, 3095, 3100
2064, 2113, 3090, 3100, 3099
2065, 3104, 3105, 3101, 2063
2066, 3105, 3102, 2117, 3101
2067, 3103, 2118, 3102, 3105
2068, 2115, 3103, 3105, 3104
2069, 3108, 3109, 3106, 2057
2070, 3109, 3103, 2115, 3106
2071, 3107, 2118, 3103, 3109
2072, 2116, 3107, 3109, 3108
2073, 3111, 3112, 3110, 2071
2074, 3112, 3107, 2116, 3110
2075, 3102, 2118, 3107, 3112
2076, 2117, 3102, 3112, 3111
2077, 3116, 3117, 3113, 1872
2078, 3117, 3114, 2121, 3113
2079, 3115, 2122, 3114, 3117
2080, 2119, 3115, 3117, 3116
2081, 3120, 3121, 3118, 1848
2082, 3121, 3115, 2119, 3118
2083, 3119, 2122, 3115, 3121
2084, 2120, 3119, 3121, 3120
2085, 3123, 3124, 3122, 1900
2086, 3124, 3119, 2120, 3122
2087, 3114, 2122, 3119, 3124
2088, 2121, 3114, 3124, 3123
2089, 3128, 3129, 3125, 1990
2090, 3129, 3126, 2125, 3125
2091, 3127, 2126, 3126, 3129
2092, 2123, 3127, 3129, 3128
2093, 3132, 3133, 3130, 1955
2094, 3133, 3127, 2123, 3130
2095, 3131, 2126, 3127, 3133
2096, 2124, 3131, 3133, 3132
2097, 3135, 3136, 3134, 1992
2098, 3136, 3131, 2124, 3134
2099, 3126, 2126, 3131, 3136
2100, 2125, 3126, 3136, 3135
2101, 3140, 3141, 3137, 1920
2102, 3141, 3138, 2129, 3137
2103, 3139, 2130, 3138, 3141
2104, 2127, 3139, 3141, 3140
2105, 3144, 3145, 3142, 1900
2106, 3145, 3139, 2127, 3142
2107, 3143, 2130, 3139, 3145
2108, 2128, 3143, 3145, 3144
2109, 3147, 3148, 3146, 1972
2110, 3148, 3143, 2128, 3146
2111, 3138, 2130, 3143, 3148
2112, 2129, 3138, 3148, 3147
2113, 3152, 3153, 3149, 1871
2114, 3153, 3150, 2133, 3149
2115, 3151, 2134, 3150, 3153
2116, 2131, 3151, 3153, 3152
2117, 3156, 3157, 3154, 1849
2118, 3157, 3151, 2131, 3154
2119, 3155, 2134, 3151, 3157
2120, 2132, 3155, 3157, 3156
2121, 3159, 3160, 3158, 1888
2122, 3160, 3155, 2132, 3158
2123, 3150, 2134, 3155, 3160
2124, 2133, 3150, 3160, 3159
2125, 3164, 3165, 3161, 2079
2126, 3165, 3162, 2137, 3161
2127, 3163, 2138, 3162, 3165
2128, 2135, 3163, 3165, 3164
2129, 3168, 3169, 3166, 2072
2130, 3169, 3163, 2135, 3166
2131, 3167, 2138, 3163, 3169
2132, 2136, 3167, 3169, 3168
2133, 3171, 3172, 3170, 2080
2134, 3172, 3167, 2136, 3170
2135, 3162, 2138, 3167, 3172
2136, 2137, 3162, 3172, 3171
2137, 3176, 3177, 3173, 1914
2138, 3177, 3174, 2141, 3173
2139, 3175, 2142, 3174, 3177
2140, 2139, 3175, 3177, 3176
2141, 3180, 3181, 3178, 1970
2142, 3181, 3175, 2139, 3178
2143, 3179, 2142, 3175, 3181
2144, 2140, 3179, 3181, 3180
2145, 3183, 3184, 3182, 1994
2146, 3184, 3179, 2140, 3182
2147, 3174, 2142, 3179, 3184
2148, 2141, 3174, 3184, 3183
2149, 3188, 3189, 3185, 2031
2150, 3189, 3186, 2145, 3185
2151, 3187, 2146, 3186, 3189
2152, 2143, 3187, 3189, 3188
2153, 3192, 3193, 3190, 2051
2154, 3193, 3187, 2143, 3190
2155, 3191, 2146, 3187, 3193
2156, 2144, 3191, 3193, 3192
2157, 3195, 3196, 3194, 2067
2158, 3196, 3191, 2144, 3194
2159, 3186, 2146, 3191, 3196
2160, 2145, 3186, 3196, 3195
2161, 3200, 3201, 3197, 1923
2162, 3201, 3198, 2149, 3197
2163, 3199, 2150, 3198, 3201
2164, 2147, 3199, 3201, 3200
2165, 3204, 3205, 3202, 1903
2166, 3205, 3199, 2147, 3202
2167, 3203, 2150, 3199, 3205
2168, 2148, 3203, 3205, 3204
2169, 3207, 3208, 3206, 1944
2170, 3208, 3203, 2148, 3206
2171, 3198, 2150, 3203, 3208
2172, 2149, 3198, 3208, 3207
2173, 3212, 3213, 3209, 2073
2174, 3213, 3210, 2153, 3209
2175, 3211, 2154, 3210, 3213
2176, 2151, 3211, 3213, 3212
2177, 3216, 3217, 3214, 2068
2178, 3217, 3211, 2151, 3214
2179, 3215, 2154, 3211, 3217
2180, 2152, 3215, 3217, 3216
2181, 3219, 3220, 3218, 2080
2182, 3220, 3215, 2152, 3218
2183, 3210, 2154, 3215, 3220
2184, 2153, 3210, 3220, 3219
2185, 3224, 3225, 3221, 127
2186, 3225, 3222, 2157, 3221
2187, 3223, 2158, 3222, 3225
2188, 2155, 3223, 3225, 3224
2189, 3228, 3229, 3226, 1834
2190, 3229, 3223, 2155, 3226
2191, 3227, 2158, 3223, 3229
2192, 2156, 3227, 3229, 3228
2193, 3231, 3232, 3230, 1902
2194, 3232, 3227, 2156, 3230
2195, 3222, 2158, 3227, 3232
2196, 2157, 3222, 3232, 3231
2197, 3236, 3237, 3233, 1930
2198, 3237, 3234, 2161, 3233
2199, 3235, 2162, 3234, 3237
2200, 2159, 3235, 3237, 3236
2201, 3240, 3241, 3238, 1880
2202, 3241, 3235, 2159, 3238
2203, 3239, 2162, 3235, 3241
2204, 2160, 3239, 3241, 3240
2205, 3243, 3244, 3242, 1934
2206, 3244, 3239, 2160, 3242
2207, 3234, 2162, 3239, 3244
2208, 2161, 3234, 3244, 3243
2209, 3248, 3249, 3245, 1988
2210, 3249, 3246, 2165, 3245
2211, 3247, 2166, 3246, 3249
2212, 2163, 3247, 3249, 3248
2213, 3252, 3253, 3250, 2016
2214, 3253, 3247, 2163, 3250
2215, 3251, 2166, 3247, 3253
2216, 2164, 3251, 3253, 3252
2217, 3255, 3256, 3254, 2046
2218, 3256, 3251, 2164, 3254
2219, 3246, 2166, 3251, 3256
2220, 2165, 3246, 3256, 3255
2221, 3260, 3261, 3257, 2052
2222, 3261, 3258, 2169, 3257
2223, 3259, 2170, 3258, 3261
2224, 2167, 3259, 3261, 3260
2225, 3264, 3265, 3262, 2073
2226, 3265, 3259, 2167, 3262
2227, 3263, 2170, 3259, 3265
2228, 2168, 3263, 3265, 3264
2229, 3267, 3268, 3266, 2078
2230, 3268, 3263, 2168, 3266
2231, 3258, 2170, 3263, 3268
2232, 2169, 3258, 3268, 3267
2233, 3272, 3273, 3269, 1983
2234, 3273, 3270, 2173, 3269
2235, 3271, 2174, 3270, 3273
2236, 2171, 3271, 3273, 3272
2237, 3276, 3277, 3274, 1962
2238, 3277, 3271, 2171, 3274
2239, 3275, 2174, 3271, 3277
2240, 2172, 3275, 3277, 3276
2241, 3279, 3280, 3278, 2022
2242, 3280, 3275, 2172, 3278
2243, 3270, 2174, 3275, 3280
2244, 2173, 3270, 3280, 3279
2245, 3284, 3285, 3281, 2044
2246, 3285, 3282, 2177, 3281
2247, 3283, 2178, 3282, 3285
2248, 2175, 3283, 3285, 3284
2249, 3288, 3289, 3286, 2035
2250, 3289, 3283, 2175, 3286
2251, 3287, 2178, 3283, 3289
2252, 2176, 3287, 3289, 3288
2253, 3291, 3292, 3290, 2062
2254, 3292, 3287, 2176, 3290
2255, 3282, 2178, 3287, 3292
2256, 2177, 3282, 3292, 3291
2257, 3296, 3297, 3293, 1988
2258, 3297, 3294, 2181, 3293
2259, 3295, 2182, 3294, 3297
2260, 2179, 3295, 3297, 3296
2261, 3300, 3301, 3298, 1968
2262, 3301, 3295, 2179, 3298
2263, 3299, 2182, 3295, 3301
2264, 2180, 3299, 3301, 3300
2265, 3303, 3304, 3302, 2004
2266, 3304, 3299, 2180, 3302
2267, 3294, 2182, 3299, 3304
2268, 2181, 3294, 3304, 3303
2269, 3308, 3309, 3305, 2060
2270, 3309, 3306, 2185, 3305
2271, 3307, 2186, 3306, 3309
2272, 2183, 3307, 3309, 3308
2273, 3312, 3313, 3310, 2055
2274, 3313, 3307, 2183, 3310
2275, 3311, 2186, 3307, 3313
2276, 2184, 3311, 3313, 3312
2277, 3315, 3316, 3314, 2069
2278, 3316, 3311, 2184, 3314
2279, 3306, 2186, 3311, 3316
2280, 2185, 3306, 3316, 3315
2281, 360, 3320, 3317, 16
2282, 3320, 3318, 2188, 3317
2283, 3319, 2189, 3318, 3320
2284, 359, 3319, 3320, 360
2285, 3322, 3323, 358, 17
2286, 3323, 3319, 359, 358
2287, 3321, 2189, 3319, 3323
2288, 2187, 3321, 3323, 3322
2289, 3325, 3326, 3324, 1827
2290, 3326, 3321, 2187, 3324
2291, 3318, 2189, 3321, 3326
2292, 2188, 3318, 3326, 3325
2293, 3330, 3331, 3327, 1957
2294, 3331, 3328, 2192, 3327
2295, 3329, 2193, 3328, 3331
2296, 2190, 3329, 3331, 3330
2297, 3334, 3335, 3332, 1991
2298, 3335, 3329, 2190, 3332
2299, 3333, 2193, 3329, 3335
2300, 2191, 3333, 3335, 3334
2301, 3337, 3338, 3336, 2003
2302, 3338, 3333, 2191, 3336
2303, 3328, 2193, 3333, 3338
2304, 2192, 3328, 3338, 3337
2305, 351, 3342, 3339, 13
2306, 3342, 3340, 2195, 3339
2307, 3341, 2196, 3340, 3342
2308, 350, 3341, 3342, 351
2309, 3344, 3345, 349, 14
2310, 3345, 3341, 350, 349
2311, 3343, 2196, 3341, 3345
2312, 2194, 3343, 3345, 3344
2313, 3347, 3348, 3346, 1820
2314, 3348, 3343, 2194, 3346
2315, 3340, 2196, 3343, 3348
2316, 2195, 3340, 3348, 3347
2317, 384, 3352, 3349, 25
2318, 3352, 3350, 2198, 3349
2319, 3351, 2199, 3350, 3352
2320, 383, 3351, 3352, 384
2321, 3354, 3355, 382, 26
2322, 3355, 3351, 383, 382
2323, 3353, 2199, 3351, 3355
2324, 2197, 3353, 3355, 3354
2325, 3357, 3358, 3356, 1817
2326, 3358, 3353, 2197, 3356
2327, 3350, 2199, 3353, 3358
2328, 2198, 3350, 3358, 3357
2329, 3362, 3363, 3359, 1992
2330, 3363, 3360, 2202, 3359
2331, 3361, 2203, 3360, 3363
2332, 2200, 3361, 3363, 3362
2333, 3366, 3367, 3364, 2006
2334, 3367, 3361, 2200, 3364
2335, 3365, 2203, 3361, 3367
2336, 2201, 3365, 3367, 3366
2337, 3369, 3370, 3368, 2050
2338, 3370, 3365, 2201, 3368
2339, 3360, 2203, 3365, 3370
2340, 2202, 3360, 3370, 3369
2341, 3374, 3375, 3371, 2004
2342, 3375, 3372, 2206, 3371
2343, 3373, 2207, 3372, 3375
2344, 2204, 3373, 3375, 3374
2345, 3378, 3379, 3376, 1954
2346, 3379, 3373, 2204, 3376
2347, 3377, 2207, 3373, 3379
2348, 2205, 3377, 3379, 3378
2349, 3381, 3382, 3380, 2029
2350, 3382, 3377, 2205, 3380
2351, 3372, 2207, 3377, 3382
2352, 2206, 3372, 3382, 3381
2353, 3386, 3387, 3383, 1964
2354, 3387, 3384, 2210, 3383
2355, 3385, 2211, 3384, 3387
2356, 2208, 3385, 3387, 3386
2357, 3390, 3391, 3388, 1990
2358, 3391, 3385, 2208, 3388
2359, 3389, 2211, 3385, 3391
2360, 2209, 3389, 3391, 3390
2361, 3393, 3394, 3392, 2000
2362, 3394, 3389, 2209, 3392
2363, 3384, 2211, 3389, 3394
2364, 2210, 3384, 3394, 3393
2365, 3398, 3399, 3395, 1900
2366, 3399, 3396, 2214, 3395
2367, 3397, 2215, 3396, 3399
2368, 2212, 3397, 3399, 3398
2369, 3402, 3403, 3400, 1827
2370, 3403, 3397, 2212, 3400
2371, 3401, 2215, 3397, 3403
2372, 2213, 3401, 3403, 3402
2373, 3405, 3406, 3404, 1923
2374, 3406, 3401, 2213, 3404
2375, 3396, 2215, 3401, 3406
2376, 2214, 3396, 3406, 3405
2377, 3410, 3411, 3407, 1971
2378, 3411, 3408, 2218, 3407
2379, 3409, 2219, 3408, 3411
2380, 2216, 3409, 3411, 3410
2381, 3414, 3415, 3412, 1948
2382, 3415, 3409, 2216, 3412
2383, 3413, 2219, 3409, 3415
2384, 2217, 3413, 3415, 3414
2385, 3417, 3418, 3416, 1980
2386, 3418, 3413, 2217, 3416
2387, 3408, 2219, 3413, 3418
2388, 2218, 3408, 3418, 3417
2389, 3422, 3423, 3419, 2075
2390, 3423, 3420, 2222, 3419
2391, 3421, 2223, 3420, 3423
2392, 2220, 3421, 3423, 3422
2393, 3426, 3427, 3424, 2065
2394, 3427, 3421, 2220, 3424
2395, 3425, 2223, 3421, 3427
2396, 2221, 3425, 3427, 3426
2397, 3429, 3430, 3428, 2078
2398, 3430, 3425, 2221, 3428
2399, 3420, 2223, 3425, 3430
2400, 2222, 3420, 3430, 3429
2401, 3434, 3435, 3431, 1932
2402, 3435, 3432, 2226, 3431
2403, 3433, 2227, 3432, 3435
2404, 2224, 3433, 3435, 3434
2405, 3438, 3439, 3436, 1937
2406, 3439, 3433, 2224, 3436
2407, 3437, 2227, 3433, 3439
2408, 2225, 3437, 3439, 3438
2409, 3441, 3442, 3440, 1956
2410, 3442, 3437, 2225, 3440
2411, 3432, 2227, 3437, 3442
2412, 2226, 3432, 3442, 3441
2413, 323, 3446, 3443, 324
2414, 3446, 3444, 2229, 3443
2415, 3445, 2230, 3444, 3446
2416, 322, 3445, 3446, 323
2417, 3448, 3449, 321, 10
2418, 3449, 3445, 322, 321
2419, 3447, 2230, 3445, 3449
2420, 2228, 3447, 3449, 3448
2421, 3451, 3452, 3450, 1815
2422, 3452, 3447, 2228, 3450
2423, 3444, 2230, 3447, 3452
2424, 2229, 3444, 3452, 3451
2425, 327, 3456, 3453, 9
2426, 3456, 3454, 2232, 3453
2427, 3455, 2233, 3454, 3456
2428, 326, 3455, 3456, 327
2429, 3458, 3459, 325, 324
2430, 3459, 3455, 326, 325
2431, 3457, 2233, 3455, 3459
2432, 2231, 3457, 3459, 3458
2433, 3461, 3462, 3460, 1853
2434, 3462, 3457, 2231, 3460
2435, 3454, 2233, 3457, 3462
2436, 2232, 3454, 3462, 3461
2437, 3466, 3467, 3463, 1938
2438, 3467, 3464, 2236, 3463
2439, 3465, 2237, 3464, 3467
2440, 2234, 3465, 3467, 3466
2441, 3470, 3471, 3468, 1936
2442, 3471, 3465, 2234, 3468
2443, 3469, 2237, 3465, 3471
2444, 2235, 3469, 3471, 3470
2445, 3473, 3474, 3472, 1971
2446, 3474, 3469, 2235, 3472
2447, 3464, 2237, 3469, 3474
2448, 2236, 3464, 3474, 3473
2449, 3478, 3479, 3475, 1910
2450, 3479, 3476, 2240, 3475
2451, 3477, 2241, 3476, 3479
2452, 2238, 3477, 3479, 3478
2453, 3482, 3483, 3480, 1939
2454, 3483, 3477, 2238, 3480
2455, 3481, 2241, 3477, 3483
2456, 2239, 3481, 3483, 3482
2457, 3485, 3486, 3484, 1951
2458, 3486, 3481, 2239, 3484
2459, 3476, 2241, 3481, 3486
2460, 2240, 3476, 3486, 3485
2461, 3490, 3491, 3487, 1973
2462, 3491, 3488, 2244, 3487
2463, 3489, 2245, 3488, 3491
2464, 2242, 3489, 3491, 3490
2465, 3494, 3495, 3492, 1924
2466, 3495, 3489, 2242, 3492
2467, 3493, 2245, 3489, 3495
2468, 2243, 3493, 3495, 3494
2469, 3497, 3498, 3496, 1989
2470, 3498, 3493, 2243, 3496
2471, 3488, 2245, 3493, 3498
2472, 2244, 3488, 3498, 3497
2473, 412, 3502, 3499, 29
2474, 3502, 3500, 2247, 3499
2475, 3501, 2248, 3500, 3502
2476, 411, 3501, 3502, 412
2477, 3504, 3505, 410, 409
2478, 3505, 3501, 411, 410
2479, 3503, 2248, 3501, 3505
2480, 2246, 3503, 3505, 3504
2481, 3507, 3508, 3506, 1832
2482, 3508, 3503, 2246, 3506
2483, 3500, 2248, 3503, 3508
2484, 2247, 3500, 3508, 3507
2485, 3512, 3513, 3509, 1896
2486, 3513, 3510, 2251, 3509
2487, 3511, 2252, 3510, 3513
2488, 2249, 3511, 3513, 3512
2489, 3516, 3517, 3514, 1877
2490, 3517, 3511, 2249, 3514
2491, 3515, 2252, 3511, 3517
2492, 2250, 3515, 3517, 3516
2493, 3519, 3520, 3518, 1938
2494, 3520, 3515, 2250, 3518
2495, 3510, 2252, 3515, 3520
2496, 2251, 3510, 3520, 3519
2497, 408, 3524, 3521, 409
2498, 3524, 3522, 2254, 3521
2499, 3523, 2255, 3522, 3524
2500, 407, 3523, 3524, 408
2501, 3526, 3527, 406, 30
2502, 3527, 3523, 407, 406
2503, 3525, 2255, 3523, 3527
2504, 2253, 3525, 3527, 3526
2505, 3529, 3530, 3528, 1854
2506, 3530, 3525, 2253, 3528
2507, 3522, 2255, 3525, 3530
2508, 2254, 3522, 3530, 3529
2509, 3534, 3535, 3531, 1901
2510, 3535, 3532, 2258, 3531
2511, 3533, 2259, 3532, 3535
2512, 2256, 3533, 3535, 3534
2513, 3538, 3539, 3536, 1862
2514, 3539, 3533, 2256, 3536
2515, 3537, 2259, 3533, 3539
2516, 2257, 3537, 3539, 3538
2517, 3541, 3542, 3540, 1937
2518, 3542, 3537, 2257, 3540
2519, 3532, 2259, 3537, 3542
2520, 2258, 3532, 3542, 3541
2521, 3546, 3547, 3543, 1820
2522, 3547, 3544, 2262, 3543
2523, 3545, 2263, 3544, 3547
2524, 2260, 3545, 3547, 3546
2525, 3550, 3551, 3548, 1855
2526, 3551, 3545, 2260, 3548
2527, 3549, 2263, 3545, 3551
2528, 2261, 3549, 3551, 3550
2529, 3553, 3554, 3552, 1892
2530, 3554, 3549, 2261, 3552
2531, 3544, 2263, 3549, 3554
2532, 2262, 3544, 3554, 3553
2533, 3558, 3559, 3555, 2036
2534, 3559, 3556, 2266, 3555
2535, 3557, 2267, 3556, 3559
2536, 2264, 3557, 3559, 3558
2537, 3562, 3563, 3560, 2008
2538, 3563, 3557, 2264, 3560
2539, 3561, 2267, 3557, 3563
2540, 2265, 3561, 3563, 3562
2541, 3565, 3566, 3564, 2049
2542, 3566, 3561, 2265, 3564
2543, 3556, 2267, 3561, 3566
2544, 2266, 3556, 3566, 3565
2545, 3570, 3571, 3567, 1895
2546, 3571, 3568, 2270, 3567
2547, 3569, 2271, 3568, 3571
2548, 2268, 3569, 3571, 3570
2549, 3574, 3575, 3572, 1897
2550, 3575, 3569, 2268, 3572
2551, 3573, 2271, 3569, 3575
2552, 2269, 3573, 3575, 3574
2553, 3577, 3578, 3576, 1977
2554, 3578, 3573, 2269, 3576
2555, 3568, 2271, 3573, 3578
2556, 2270, 3568, 3578, 3577
2557, 3582, 3583, 3579, 1940
2558, 3583, 3580, 2274, 3579
2559, 3581, 2275, 3580, 3583
2560, 2272, 3581, 3583, 3582
2561, 3586, 3587, 3584, 2002
2562, 3587, 3581, 2272, 3584
2563, 3585, 2275, 3581, 3587
2564, 2273, 3585, 3587, 3586
2565, 3589, 3590, 3588, 2027
2566, 3590, 3585, 2273, 3588
2567, 3580, 2275, 3585, 3590
2568, 2274, 3580, 3590, 3589
2569, 3594, 3595, 3591, 1856
2570, 3595, 3592, 2278, 3591
2571, 3593, 2279, 3592, 3595
2572, 2276, 3593, 3595, 3594
2573, 3598, 3599, 3596, 1817
2574, 3599, 3593, 2276, 3596
2575, 3597, 2279, 3593, 3599
2576, 2277, 3597, 3599, 3598
2577, 3601, 3602, 3600, 1893
2578, 3602, 3597, 2277, 3600
2579, 3592, 2279, 3597, 3602
2580, 2278, 3592, 3602, 3601
2581, 3606, 3607, 3603, 1841
2582, 3607, 3604, 2282, 3603
2583, 3605, 2283, 3604, 3607
2584, 2280, 3605, 3607, 3606
2585, 83, 3610, 3608, 84
2586, 3610, 3605, 2280, 3608
2587, 3609, 2283, 3605, 3610
2588, 82, 3609, 3610, 83
2589, 3612, 3613, 81, 80
2590, 3613, 3609, 82, 81
2591, 3611, 2283, 3609, 3613
2592, 2281, 3611, 3613, 3612
2593, 3615, 3616, 3614, 1823
2594, 3616, 3611, 2281, 3614
2595, 3604, 2283, 3611, 3616
2596, 2282, 3604, 3616, 3615
2597, 3620, 3621, 3617, 1842
2598, 3621, 3618, 2285, 3617
2599, 3619, 2286, 3618, 3621
2600, 2284, 3619, 3621, 3620
2601, 87, 3624, 3622, 88
2602, 3624, 3619, 2284, 3622
2603, 3623, 2286, 3619, 3624
2604, 86, 3623, 3624, 87
2605, 3608, 3626, 85, 84
2606, 3626, 3623, 86, 85
2607, 3625, 2286, 3623, 3626
2608, 2280, 3625, 3626, 3608
2609, 3627, 3628, 3606, 1841
2610, 3628, 3625, 2280, 3606
2611, 3618, 2286, 3625, 3628
2612, 2285, 3618, 3628, 3627
2613, 3632, 3633, 3629, 1840
2614, 3633, 3630, 2289, 3629
2615, 3631, 2290, 3630, 3633
2616, 2287, 3631, 3633, 3632
2617, 107, 3636, 3634, 108
2618, 3636, 3631, 2287, 3634
2619, 3635, 2290, 3631, 3636
2620, 106, 3635, 3636, 107
2621, 3638, 3639, 105, 104
2622, 3639, 3635, 106, 105
2623, 3637, 2290, 3635, 3639
2624, 2288, 3637, 3639, 3638
2625, 3641, 3642, 3640, 1826
2626, 3642, 3637, 2288, 3640
2627, 3630, 2290, 3637, 3642
2628, 2289, 3630, 3642, 3641
2629, 3646, 3647, 3643, 2054
2630, 3647, 3644, 2294, 3643
2631, 3645, 2295, 3644, 3647
2632, 2291, 3645, 3647, 3646
2633, 3650, 3651, 3648, 2076
2634, 3651, 3645, 2291, 3648
2635, 3649, 2295, 3645, 3651
2636, 2292, 3649, 3651, 3650
2637, 3654, 3655, 3652, 2064
2638, 3655, 3649, 2292, 3652
2639, 3653, 2295, 3649, 3655
2640, 2293, 3653, 3655, 3654
2641, 3657, 3658, 3656, 2038
2642, 3658, 3653, 2293, 3656
2643, 3644, 2295, 3653, 3658
2644, 2294, 3644, 3658, 3657
2645, 3662, 3663, 3659, 1949
2646, 3663, 3660, 2299, 3659
2647, 3661, 2300, 3660, 3663
2648, 2296, 3661, 3663, 3662
2649, 3666, 3667, 3664, 1998
2650, 3667, 3661, 2296, 3664
2651, 3665, 2300, 3661, 3667
2652, 2297, 3665, 3667, 3666
2653, 3670, 3671, 3668, 2032
2654, 3671, 3665, 2297, 3668
2655, 3669, 2300, 3665, 3671
2656, 2298, 3669, 3671, 3670
2657, 3673, 3674, 3672, 2019
2658, 3674, 3669, 2298, 3672
2659, 3660, 2300, 3669, 3674
2660, 2299, 3660, 3674, 3673
2661, 3677, 3678, 3673, 2019
2662, 3678, 3675, 2299, 3673
2663, 3676, 2304, 3675, 3678
2664, 2301, 3676, 3678, 3677
2665, 3681, 3682, 3679, 1982
2666, 3682, 3676, 2301, 3679
2667, 3680, 2304, 3676, 3682
2668, 2302, 3680, 3682, 3681
2669, 3685, 3686, 3683, 1908
2670, 3686, 3680, 2302, 3683
2671, 3684, 2304, 3680, 3686
2672, 2303, 3684, 3686, 3685
2673, 3659, 3688, 3687, 1949
2674, 3688, 3684, 2303, 3687
2675, 3675, 2304, 3684, 3688
2676, 2299, 3675, 3688, 3659
2677, 3691, 3692, 3260, 2052
2678, 3692, 3689, 2167, 3260
2679, 3690, 2307, 3689, 3692
2680, 2305, 3690, 3692, 3691
2681, 3695, 3696, 3693, 2034
2682, 3696, 3690, 2305, 3693
2683, 3694, 2307, 3690, 3696
2684, 2306, 3694, 3696, 3695
2685, 3214, 3699, 3697, 2068
2686, 3699, 3694, 2306, 3697
2687, 3698, 2307, 3694, 3699
2688, 2151, 3698, 3699, 3214
2689, 3262, 3700, 3212, 2073
2690, 3700, 3698, 2151, 3212
2691, 3689, 2307, 3698, 3700
2692, 2167, 3689, 3700, 3262
2693, 91, 3704, 3701, 92
2694, 3704, 3702, 2309, 3701
2695, 3703, 2310, 3702, 3704
2696, 90, 3703, 3704, 91
2697, 3622, 3706, 89, 88
2698, 3706, 3703, 90, 89
2699, 3705, 2310, 3703, 3706
2700, 2284, 3705, 3706, 3622
2701, 3708, 3709, 3620, 1842
2702, 3709, 3705, 2284, 3620
2703, 3707, 2310, 3705, 3709
2704, 2308, 3707, 3709, 3708
2705, 3711, 3712, 3710, 1885
2706, 3712, 3707, 2308, 3710
2707, 3702, 2310, 3707, 3712
2708, 2309, 3702, 3712, 3711
2709, 3716, 3717, 3713, 1874
2710, 3717, 3714, 2314, 3713
2711, 3715, 2315, 3714, 3717
2712, 2311, 3715, 3717, 3716
2713, 3720, 3721, 3718, 1931
2714, 3721, 3715, 2311, 3718
2715, 3719, 2315, 3715, 3721
2716, 2312, 3719, 3721, 3720
2717, 3724, 3725, 3722, 1889
2718, 3725, 3719, 2312, 3722
2719, 3723, 2315, 3719, 3725
2720, 2313, 3723, 3725, 3724
2721, 3727, 3728, 3726, 1838
2722, 3728, 3723, 2313, 3726
2723, 3714, 2315, 3723, 3728
2724, 2314, 3714, 3728, 3727
2725, 3732, 3733, 3729, 2063
2726, 3733, 3730, 2318, 3729
2727, 3731, 2319, 3730, 3733
2728, 2316, 3731, 3733, 3732
2729, 3697, 3736, 3734, 2068
2730, 3736, 3731, 2316, 3734
2731, 3735, 2319, 3731, 3736
2732, 2306, 3735, 3736, 3697
2733, 3738, 3739, 3695, 2034
2734, 3739, 3735, 2306, 3695
2735, 3737, 2319, 3735, 3739
2736, 2317, 3737, 3739, 3738
2737, 3741, 3742, 3740, 2058
2738, 3742, 3737, 2317, 3740
2739, 3730, 2319, 3737, 3742
2740, 2318, 3730, 3742, 3741
2741, 3746, 3747, 3743, 1995
2742, 3747, 3744, 2323, 3743
2743, 3745, 2324, 3744, 3747
2744, 2320, 3745, 3747, 3746
2745, 3750, 3751, 3748, 2020
2746, 3751, 3745, 2320, 3748
2747, 3749, 2324, 3745, 3751
2748, 2321, 3749, 3751, 3750
2749, 3754, 3755, 3752, 2044
2750, 3755, 3749, 2321, 3752
2751, 3753, 2324, 3749, 3755
2752, 2322, 3753, 3755, 3754
2753, 3757, 3758, 3756, 2014
2754, 3758, 3753, 2322, 3756
2755, 3744, 2324, 3753, 3758
2756, 2323, 3744, 3758, 3757
2757, 3643, 3762, 3759, 2054
2758, 3762, 3760, 2326, 3759
2759, 3761, 2327, 3760, 3762
2760, 2294, 3761, 3762, 3643
2761, 3764, 3765, 3657, 2038
2762, 3765, 3761, 2294, 3657
2763, 3763, 2327, 3761, 3765
2764, 2325, 3763, 3765, 3764
2765, 3672, 3768, 3766, 2019
2766, 3768, 3763, 2325, 3766
2767, 3767, 2327, 3763, 3768
2768, 2298, 3767, 3768, 3672
2769, 3769, 3770, 3670, 2032
2770, 3770, 3767, 2298, 3670
2771, 3760, 2327, 3767, 3770
2772, 2326, 3760, 3770, 3769
2773, 3774, 3775, 3771, 1844
2774, 3775, 3772, 2330, 3771
2775, 3773, 2331, 3772, 3775
2776, 2328, 3773, 3775, 3774
2777, 3778, 3779, 3776, 1890
2778, 3779, 3773, 2328, 3776
2779, 3777, 2331, 3773, 3779
2780, 2329, 3777, 3779, 3778
2781, 3094, 3782, 3780, 1873
2782, 3782, 3777, 2329, 3780
2783, 3781, 2331, 3777, 3782
2784, 2111, 3781, 3782, 3094
2785, 3783, 3784, 3092, 1825
2786, 3784, 3781, 2111, 3092
2787, 3772, 2331, 3781, 3784
2788, 2330, 3772, 3784, 3783
2789, 75, 3788, 3785, 76
2790, 3788, 3786, 2334, 3785
2791, 3787, 2335, 3786, 3788
2792, 74, 3787, 3788, 75
2793, 3790, 3791, 73, 72
2794, 3791, 3787, 74, 73
2795, 3789, 2335, 3787, 3791
2796, 2332, 3789, 3791, 3790
2797, 3794, 3795, 3792, 1829
2798, 3795, 3789, 2332, 3792
2799, 3793, 2335, 3789, 3795
2800, 2333, 3793, 3795, 3794
2801, 3797, 3798, 3796, 1880
2802, 3798, 3793, 2333, 3796
2803, 3786, 2335, 3793, 3798
2804, 2334, 3786, 3798, 3797
2805, 3802, 3803, 3799, 1917
2806, 3803, 3800, 2338, 3799
2807, 3801, 2339, 3800, 3803
2808, 2336, 3801, 3803, 3802
2809, 3710, 3806, 3804, 1885
2810, 3806, 3801, 2336, 3804
2811, 3805, 2339, 3801, 3806
2812, 2308, 3805, 3806, 3710
2813, 3808, 3809, 3708, 1842
2814, 3809, 3805, 2308, 3708
2815, 3807, 2339, 3805, 3809
2816, 2337, 3807, 3809, 3808
2817, 3811, 3812, 3810, 1927
2818, 3812, 3807, 2337, 3810
2819, 3800, 2339, 3807, 3812
2820, 2338, 3800, 3812, 3811
2821, 3816, 3817, 3813, 1869
2822, 3817, 3814, 2343, 3813
2823, 3815, 2344, 3814, 3817
2824, 2340, 3815, 3817, 3816
2825, 3820, 3821, 3818, 1993
2826, 3821, 3815, 2340, 3818
2827, 3819, 2344, 3815, 3821
2828, 2341, 3819, 3821, 3820
2829, 3824, 3825, 3822, 1965
2830, 3825, 3819, 2341, 3822
2831, 3823, 2344, 3819, 3825
2832, 2342, 3823, 3825, 3824
2833, 3827, 3828, 3826, 1916
2834, 3828, 3823, 2342, 3826
2835, 3814, 2344, 3823, 3828
2836, 2343, 3814, 3828, 3827
2837, 99, 3832, 3829, 100
2838, 3832, 3830, 2347, 3829
2839, 3831, 2348, 3830, 3832
2840, 98, 3831, 3832, 99
2841, 3834, 3835, 97, 96
2842, 3835, 3831, 98, 97
2843, 3833, 2348, 3831, 3835
2844, 2345, 3833, 3835, 3834
2845, 3838, 3839, 3836, 1816
2846, 3839, 3833, 2345, 3836
2847, 3837, 2348, 3833, 3839
2848, 2346, 3837, 3839, 3838
2849, 3841, 3842, 3840, 1884
2850, 3842, 3837, 2346, 3840
2851, 3830, 2348, 3837, 3842
2852, 2347, 3830, 3842, 3841
2853, 95, 3845, 3834, 96
2854, 3845, 3843, 2345, 3834
2855, 3844, 2350, 3843, 3845
2856, 94, 3844, 3845, 95
2857, 3701, 3847, 93, 92
2858, 3847, 3844, 94, 93
2859, 3846, 2350, 3844, 3847
2860, 2309, 3846, 3847, 3701
2861, 3849, 3850, 3711, 1885
2862, 3850, 3846, 2309, 3711
2863, 3848, 2350, 3846, 3850
2864, 2349, 3848, 3850, 3849
2865, 3836, 3852, 3851, 1816
2866, 3852, 3848, 2349, 3851
2867, 3843, 2350, 3848, 3852
2868, 2345, 3843, 3852, 3836
2869, 3856, 3857, 3853, 1985
2870, 3857, 3854, 2354, 3853
2871, 3855, 2355, 3854, 3857
2872, 2351, 3855, 3857, 3856
2873, 3860, 3861, 3858, 2018
2874, 3861, 3855, 2351, 3858
2875, 3859, 2355, 3855, 3861
2876, 2352, 3859, 3861, 3860
2877, 3864, 3865, 3862, 2040
2878, 3865, 3859, 2352, 3862
2879, 3863, 2355, 3859, 3865
2880, 2353, 3863, 3865, 3864
2881, 3867, 3868, 3866, 2058
2882, 3868, 3863, 2353, 3866
2883, 3854, 2355, 3863, 3868
2884, 2354, 3854, 3868, 3867
2885, 3872, 3873, 3869, 2074
2886, 3873, 3870, 2359, 3869
2887, 3871, 2360, 3870, 3873
2888, 2356, 3871, 3873, 3872
2889, 3876, 3877, 3874, 2056
2890, 3877, 3871, 2356, 3874
2891, 3875, 2360, 3871, 3877
2892, 2357, 3875, 3877, 3876
2893, 3880, 3881, 3878, 2064
2894, 3881, 3875, 2357, 3878
2895, 3879, 2360, 3875, 3881
2896, 2358, 3879, 3881, 3880
2897, 3883, 3884, 3882, 2079
2898, 3884, 3879, 2358, 3882
2899, 3870, 2360, 3879, 3884
2900, 2359, 3870, 3884, 3883
2901, 3853, 3888, 3885, 1985
2902, 3888, 3886, 2362, 3885
2903, 3887, 2363, 3886, 3888
2904, 2354, 3887, 3888, 3853
2905, 3740, 3890, 3867, 2058
2906, 3890, 3887, 2354, 3867
2907, 3889, 2363, 3887, 3890
2908, 2317, 3889, 3890, 3740
2909, 3892, 3893, 3738, 2034
2910, 3893, 3889, 2317, 3738
2911, 3891, 2363, 3889, 3893
2912, 2361, 3891, 3893, 3892
2913, 3895, 3896, 3894, 2012
2914, 3896, 3891, 2361, 3894
2915, 3886, 2363, 3891, 3896
2916, 2362, 3886, 3896, 3895
2917, 3899, 3900, 3860, 2018
2918, 3900, 3897, 2352, 3860
2919, 3898, 2367, 3897, 3900
2920, 2364, 3898, 3900, 3899
2921, 3903, 3904, 3901, 1986
2922, 3904, 3898, 2364, 3901
2923, 3902, 2367, 3898, 3904
2924, 2365, 3902, 3904, 3903
2925, 3907, 3908, 3905, 2043
2926, 3908, 3902, 2365, 3905
2927, 3906, 2367, 3902, 3908
2928, 2366, 3906, 3908, 3907
2929, 3862, 3910, 3909, 2040
2930, 3910, 3906, 2366, 3909
2931, 3897, 2367, 3906, 3910
2932, 2352, 3897, 3910, 3862
2933, 3913, 3914, 3494, 1924
2934, 3914, 3911, 2243, 3494
2935, 3912, 2371, 3911, 3914
2936, 2368, 3912, 3914, 3913
2937, 3917, 3918, 3915, 1974
2938, 3918, 3912, 2368, 3915
2939, 3916, 2371, 3912, 3918
2940, 2369, 3916, 3918, 3917
2941, 3921, 3922, 3919, 2026
2942, 3922, 3916, 2369, 3919
2943, 3920, 2371, 3916, 3922
2944, 2370, 3920, 3922, 3921
2945, 3496, 3924, 3923, 1989
2946, 3924, 3920, 2370, 3923
2947, 3911, 2371, 3920, 3924
2948, 2243, 3911, 3924, 3496
2949, 3928, 3929, 3925, 2042
2950, 3929, 3926, 2374, 3925
2951, 3927, 2375, 3926, 3929
2952, 2372, 3927, 3929, 3928
2953, 3269, 3932, 3930, 1983
2954, 3932, 3927, 2372, 3930
2955, 3931, 2375, 3927, 3932
2956, 2173, 3931, 3932, 3269
2957, 3934, 3935, 3279, 2022
2958, 3935, 3931, 2173, 3279
2959, 3933, 2375, 3931, 3935
2960, 2373, 3933, 3935, 3934
2961, 3937, 3938, 3936, 2033
2962, 3938, 3933, 2373, 3936
2963, 3926, 2375, 3933, 3938
2964, 2374, 3926, 3938, 3937
2965, 3942, 3943, 3939, 1835
2966, 3943, 3940, 2377, 3939
2967, 3941, 2378, 3940, 3943
2968, 2376, 3941, 3943, 3942
2969, 443, 3946, 3944, 444
2970, 3946, 3941, 2376, 3944
2971, 3945, 2378, 3941, 3946
2972, 442, 3945, 3946, 443
2973, 119, 3948, 441, 4
2974, 3948, 3945, 442, 441
2975, 3947, 2378, 3945, 3948
2976, 118, 3947, 3948, 119
2977, 3949, 3950, 117, 116
2978, 3950, 3947, 118, 117
2979, 3940, 2378, 3947, 3950
2980, 2377, 3940, 3950, 3949
2981, 3954, 3955, 3951, 1993
2982, 3955, 3952, 2382, 3951
2983, 3953, 2383, 3952, 3955
2984, 2379, 3953, 3955, 3954
2985, 3958, 3959, 3956, 1953
2986, 3959, 3953, 2379, 3956
2987, 3957, 2383, 3953, 3959
2988, 2380, 3957, 3959, 3958
2989, 3962, 3963, 3960, 2011
2990, 3963, 3957, 2380, 3960
2991, 3961, 2383, 3957, 3963
2992, 2381, 3961, 3963, 3962
2993, 3965, 3966, 3964, 2023
2994, 3966, 3961, 2381, 3964
2995, 3952, 2383, 3961, 3966
2996, 2382, 3952, 3966, 3965
2997, 3722, 3970, 3967, 1889
2998, 3970, 3968, 2386, 3967
2999, 3969, 2387, 3968, 3970
3000, 2312, 3969, 3970, 3722
3001, 3972, 3973, 3720, 1931
3002, 3973, 3969, 2312, 3720
3003, 3971, 2387, 3969, 3973
3004, 2384, 3971, 3973, 3972
3005, 3976, 3977, 3974, 1894
3006, 3977, 3971, 2384, 3974
3007, 3975, 2387, 3971, 3977
3008, 2385, 3975, 3977, 3976
3009, 3979, 3980, 3978, 1822
3010, 3980, 3975, 2385, 3978
3011, 3968, 2387, 3975, 3980
3012, 2386, 3968, 3980, 3979
3013, 3983, 3984, 3691, 2052
3014, 3984, 3981, 2305, 3691
3015, 3982, 2390, 3981, 3984
3016, 2388, 3982, 3984, 3983
3017, 3987, 3988, 3985, 2033
3018, 3988, 3982, 2388, 3985
3019, 3986, 2390, 3982, 3988
3020, 2389, 3986, 3988, 3987
3021, 3894, 3991, 3989, 2012
3022, 3991, 3986, 2389, 3989
3023, 3990, 2390, 3986, 3991
3024, 2361, 3990, 3991, 3894
3025, 3693, 3992, 3892, 2034
3026, 3992, 3990, 2361, 3892
3027, 3981, 2390, 3990, 3992
3028, 2305, 3981, 3992, 3693
3029, 3996, 3997, 3993, 1882
3030, 3997, 3994, 2392, 3993
3031, 3995, 2393, 3994, 3997
3032, 2391, 3995, 3997, 3996
3033, 3810, 4000, 3998, 1927
3034, 4000, 3995, 2391, 3998
3035, 3999, 2393, 3995, 4000
3036, 2337, 3999, 4000, 3810
3037, 3617, 4002, 3808, 1842
3038, 4002, 3999, 2337, 3808
3039, 4001, 2393, 3999, 4002
3040, 2285, 4001, 4002, 3617
3041, 4003, 4004, 3627, 1841
3042, 4004, 4001, 2285, 3627
3043, 3994, 2393, 4001, 4004
3044, 2392, 3994, 4004, 4003
3045, 79, 4007, 3612, 80
3046, 4007, 4005, 2281, 3612
3047, 4006, 2395, 4005, 4007
3048, 78, 4006, 4007, 79
3049, 3785, 4009, 77, 76
3050, 4009, 4006, 78, 77
3051, 4008, 2395, 4006, 4009
3052, 2334, 4008, 4009, 3785
3053, 4011, 4012, 3797, 1880
3054, 4012, 4008, 2334, 3797
3055, 4010, 2395, 4008, 4012
3056, 2394, 4010, 4012, 4011
3057, 3614, 4014, 4013, 1823
3058, 4014, 4010, 2394, 4013
3059, 4005, 2395, 4010, 4014
3060, 2281, 4005, 4014, 3614
3061, 3687, 4018, 4015, 1949
3062, 4018, 4016, 2398, 4015
3063, 4017, 2399, 4016, 4018
3064, 2303, 4017, 4018, 3687
3065, 4020, 4021, 3685, 1908
3066, 4021, 4017, 2303, 3685
3067, 4019, 2399, 4017, 4021
3068, 2396, 4019, 4021, 4020
3069, 4024, 4025, 4022, 1875
3070, 4025, 4019, 2396, 4022
3071, 4023, 2399, 4019, 4025
3072, 2397, 4023, 4025, 4024
3073, 4027, 4028, 4026, 1940
3074, 4028, 4023, 2397, 4026
3075, 4016, 2399, 4023, 4028
3076, 2398, 4016, 4028, 4027
3077, 103, 4031, 3638, 104
3078, 4031, 4029, 2288, 3638
3079, 4030, 2401, 4029, 4031
3080, 102, 4030, 4031, 103
3081, 3829, 4033, 101, 100
3082, 4033, 4030, 102, 101
3083, 4032, 2401, 4030, 4033
3084, 2347, 4032, 4033, 3829
3085, 4035, 4036, 3841, 1884
3086, 4036, 4032, 2347, 3841
3087, 4034, 2401, 4032, 4036
3088, 2400, 4034, 4036, 4035
3089, 3640, 4038, 4037, 1826
3090, 4038, 4034, 2400, 4037
3091, 4029, 2401, 4034, 4038
3092, 2288, 4029, 4038, 3640
3093, 4041, 4042, 3004, 1883
3094, 4042, 4039, 2082, 3004
3095, 4040, 2405, 4039, 4042
3096, 2402, 4040, 4042, 4041
3097, 4045, 4046, 4043, 1928
3098, 4046, 4040, 2402, 4043
3099, 4044, 2405, 4040, 4046
3100, 2403, 4044, 4046, 4045
3101, 4049, 4050, 4047, 1975
3102, 4050, 4044, 2403, 4047
3103, 4048, 2405, 4044, 4050
3104, 2404, 4048, 4050, 4049
3105, 3006, 4052, 4051, 2002
3106, 4052, 4048, 2404, 4051
3107, 4039, 2405, 4048, 4052
3108, 2082, 4039, 4052, 3006
3109, 4055, 4056, 297, 296
3110, 4056, 4053, 298, 297
3111, 4054, 2408, 4053, 4056
3112, 2406, 4054, 4056, 4055
3113, 3771, 4059, 4057, 1844
3114, 4059, 4054, 2406, 4057
3115, 4058, 2408, 4054, 4059
3116, 2330, 4058, 4059, 3771
3117, 4061, 4062, 3783, 1825
3118, 4062, 4058, 2330, 3783
3119, 4060, 2408, 4058, 4062
3120, 2407, 4060, 4062, 4061
3121, 299, 4064, 4063, 5
3122, 4064, 4060, 2407, 4063
3123, 4053, 2408, 4060, 4064
3124, 298, 4053, 4064, 299
3125, 4068, 4069, 4065, 2021
3126, 4069, 4066, 2411, 4065
3127, 4067, 2412, 4066, 4069
3128, 2409, 4067, 4069, 4068
3129, 4072, 4073, 4070, 1975
3130, 4073, 4067, 2409, 4070
3131, 4071, 2412, 4067, 4073
3132, 2410, 4071, 4073, 4072
3133, 3245, 4076, 4074, 1988
3134, 4076, 4071, 2410, 4074
3135, 4075, 2412, 4071, 4076
3136, 2165, 4075, 4076, 3245
3137, 4077, 4078, 3255, 2046
3138, 4078, 4075, 2165, 3255
3139, 4066, 2412, 4075, 4078
3140, 2411, 4066, 4078, 4077
3141, 3603, 4081, 4003, 1841
3142, 4081, 4079, 2392, 4003
3143, 4080, 2415, 4079, 4081
3144, 2282, 4080, 4081, 3603
3145, 4083, 4084, 3615, 1823
3146, 4084, 4080, 2282, 3615
3147, 4082, 2415, 4080, 4084
3148, 2413, 4082, 4084, 4083
3149, 4087, 4088, 4085, 1870
3150, 4088, 4082, 2413, 4085
3151, 4086, 2415, 4082, 4088
3152, 2414, 4086, 4088, 4087
3153, 3993, 4090, 4089, 1882
3154, 4090, 4086, 2414, 4089
3155, 4079, 2415, 4086, 4090
3156, 2392, 4079, 4090, 3993
3157, 3077, 4094, 4091, 1830
3158, 4094, 4092, 2418, 4091
3159, 4093, 2419, 4092, 4094
3160, 2109, 4093, 4094, 3077
3161, 4096, 4097, 3087, 1868
3162, 4097, 4093, 2109, 3087
3163, 4095, 2419, 4093, 4097
3164, 2416, 4095, 4097, 4096
3165, 4100, 4101, 4098, 1911
3166, 4101, 4095, 2416, 4098
3167, 4099, 2419, 4095, 4101
3168, 2417, 4099, 4101, 4100
3169, 4103, 4104, 4102, 1899
3170, 4104, 4099, 2417, 4102
3171, 4092, 2419, 4099, 4104
3172, 2418, 4092, 4104, 4103
3173, 3866, 4107, 3741, 2058
3174, 4107, 4105, 2318, 3741
3175, 4106, 2421, 4105, 4107
3176, 2353, 4106, 4107, 3866
3177, 4109, 4110, 3864, 2040
3178, 4110, 4106, 2353, 3864
3179, 4108, 2421, 4106, 4110
3180, 2420, 4108, 4110, 4109
3181, 3106, 4113, 4111, 2057
3182, 4113, 4108, 2420, 4111
3183, 4112, 2421, 4108, 4113
3184, 2115, 4112, 4113, 3106
3185, 3729, 4114, 3104, 2063
3186, 4114, 4112, 2115, 3104
3187, 4105, 2421, 4112, 4114
3188, 2318, 4105, 4114, 3729
3189, 4117, 4118, 3362, 1992
3190, 4118, 4115, 2200, 3362
3191, 4116, 2425, 4115, 4118
3192, 2422, 4116, 4118, 4117
3193, 4121, 4122, 4119, 1950
3194, 4122, 4116, 2422, 4119
3195, 4120, 2425, 4116, 4122
3196, 2423, 4120, 4122, 4121
3197, 4125, 4126, 4123, 1979
3198, 4126, 4120, 2423, 4123
3199, 4124, 2425, 4120, 4126
3200, 2424, 4124, 4126, 4125
3201, 3364, 4128, 4127, 2006
3202, 4128, 4124, 2424, 4127
3203, 4115, 2425, 4124, 4128
3204, 2200, 4115, 4128, 3364
3205, 3726, 4132, 4129, 1838
3206, 4132, 4130, 2427, 4129
3207, 4131, 2428, 4130, 4132
3208, 2313, 4131, 4132, 3726
3209, 4134, 4135, 3724, 1889
3210, 4135, 4131, 2313, 3724
3211, 4133, 2428, 4131, 4135
3212, 2426, 4133, 4135, 4134
3213, 436, 4138, 4136, 437
3214, 4138, 4133, 2426, 4136
3215, 4137, 2428, 4133, 4138
3216, 435, 4137, 4138, 436
3217, 4139, 4140, 434, 34
3218, 4140, 4137, 435, 434
3219, 4130, 2428, 4137, 4140
3220, 2427, 4130, 4140, 4139
3221, 4143, 4144, 370, 22
3222, 4144, 4141, 371, 370
3223, 4142, 2432, 4141, 4144
3224, 2429, 4142, 4144, 4143
3225, 4147, 4148, 4145, 1904
3226, 4148, 4142, 2429, 4145
3227, 4146, 2432, 4142, 4148
3228, 2430, 4146, 4148, 4147
3229, 4151, 4152, 4149, 1834
3230, 4152, 4146, 2430, 4149
3231, 4150, 2432, 4146, 4152
3232, 2431, 4150, 4152, 4151
3233, 372, 4154, 4153, 20
3234, 4154, 4150, 2431, 4153
3235, 4141, 2432, 4150, 4154
3236, 371, 4141, 4154, 372
3237, 4158, 4159, 4155, 1963
3238, 4159, 4156, 2435, 4155
3239, 4157, 2436, 4156, 4159
3240, 2433, 4157, 4159, 4158
3241, 4162, 4163, 4160, 1914
3242, 4163, 4157, 2433, 4160
3243, 4161, 2436, 4157, 4163
3244, 2434, 4161, 4163, 4162
3245, 3901, 4166, 4164, 1986
3246, 4166, 4161, 2434, 4164
3247, 4165, 2436, 4161, 4166
3248, 2364, 4165, 4166, 3901
3249, 4167, 4168, 3899, 2018
3250, 4168, 4165, 2364, 3899
3251, 4156, 2436, 4165, 4168
3252, 2435, 4156, 4168, 4167
3253, 4172, 4173, 4169, 1941
3254, 4173, 4170, 2440, 4169
3255, 4171, 2441, 4170, 4173
3256, 2437, 4171, 4173, 4172
3257, 4176, 4177, 4174, 1947
3258, 4177, 4171, 2437, 4174
3259, 4175, 2441, 4171, 4177
3260, 2438, 4175, 4177, 4176
3261, 4180, 4181, 4178, 1978
3262, 4181, 4175, 2438, 4178
3263, 4179, 2441, 4175, 4181
3264, 2439, 4179, 4181, 4180
3265, 4183, 4184, 4182, 1966
3266, 4184, 4179, 2439, 4182
3267, 4170, 2441, 4179, 4184
3268, 2440, 4170, 4184, 4183
3269, 4187, 4188, 4183, 1966
3270, 4188, 4185, 2440, 4183
3271, 4186, 2444, 4185, 4188
3272, 2442, 4186, 4188, 4187
3273, 4098, 4191, 4189, 1911
3274, 4191, 4186, 2442, 4189
3275, 4190, 2444, 4186, 4191
3276, 2416, 4190, 4191, 4098
3277, 4193, 4194, 4096, 1868
3278, 4194, 4190, 2416, 4096
3279, 4192, 2444, 4190, 4194
3280, 2443, 4192, 4194, 4193
3281, 4169, 4196, 4195, 1941
3282, 4196, 4192, 2443, 4195
3283, 4185, 2444, 4192, 4196
3284, 2440, 4185, 4196, 4169
3285, 4111, 4200, 4197, 2057
3286, 4200, 4198, 2446, 4197
3287, 4199, 2447, 4198, 4200
3288, 2420, 4199, 4200, 4111
3289, 3909, 4202, 4109, 2040
3290, 4202, 4199, 2420, 4109
3291, 4201, 2447, 4199, 4202
3292, 2366, 4201, 4202, 3909
3293, 4204, 4205, 3907, 2043
3294, 4205, 4201, 2366, 3907
3295, 4203, 2447, 4201, 4205
3296, 2445, 4203, 4205, 4204
3297, 4207, 4208, 4206, 2007
3298, 4208, 4203, 2445, 4206
3299, 4198, 2447, 4203, 4208
3300, 2446, 4198, 4208, 4207
3301, 4211, 4212, 3519, 1938
3302, 4212, 4209, 2251, 3519
3303, 4210, 2451, 4209, 4212
3304, 2448, 4210, 4212, 4211
3305, 4215, 4216, 4213, 1957
3306, 4216, 4210, 2448, 4213
3307, 4214, 2451, 4210, 4216
3308, 2449, 4214, 4216, 4215
3309, 4219, 4220, 4217, 1909
3310, 4220, 4214, 2449, 4217
3311, 4218, 2451, 4214, 4220
3312, 2450, 4218, 4220, 4219
3313, 3509, 4222, 4221, 1896
3314, 4222, 4218, 2450, 4221
3315, 4209, 2451, 4218, 4222
3316, 2251, 4209, 4222, 3509
3317, 4225, 4226, 3816, 1869
3318, 4226, 4223, 2340, 3816
3319, 4224, 2454, 4223, 4226
3320, 2452, 4224, 4226, 4225
3321, 4229, 4230, 4227, 1918
3322, 4230, 4224, 2452, 4227
3323, 4228, 2454, 4224, 4230
3324, 2453, 4228, 4230, 4229
3325, 3956, 4233, 4231, 1953
3326, 4233, 4228, 2453, 4231
3327, 4232, 2454, 4228, 4233
3328, 2379, 4232, 4233, 3956
3329, 3818, 4234, 3954, 1993
3330, 4234, 4232, 2379, 3954
3331, 4223, 2454, 4232, 4234
3332, 2340, 4223, 4234, 3818
3333, 4238, 4239, 4235, 2009
3334, 4239, 4236, 2457, 4235
3335, 4237, 2458, 4236, 4239
3336, 2455, 4237, 4239, 4238
3337, 4242, 4243, 4240, 2041
3338, 4243, 4237, 2455, 4240
3339, 4241, 2458, 4237, 4243
3340, 2456, 4241, 4243, 4242
3341, 3190, 4246, 4244, 2051
3342, 4246, 4241, 2456, 4244
3343, 4245, 2458, 4241, 4246
3344, 2143, 4245, 4246, 3190
3345, 4247, 4248, 3188, 2031
3346, 4248, 4245, 2143, 3188
3347, 4236, 2458, 4245, 4248
3348, 2457, 4236, 4248, 4247
3349, 3967, 4251, 4134, 1889
3350, 4251, 4249, 2426, 4134
3351, 4250, 2460, 4249, 4251
3352, 2386, 4250, 4251, 3967
3353, 4253, 4254, 3979, 1822
3354, 4254, 4250, 2386, 3979
3355, 4252, 2460, 4250, 4254
3356, 2459, 4252, 4254, 4253
3357, 440, 4257, 4255, 33
3358, 4257, 4252, 2459, 4255
3359, 4256, 2460, 4252, 4257
3360, 439, 4256, 4257, 440
3361, 4136, 4258, 438, 437
3362, 4258, 4256, 439, 438
3363, 4249, 2460, 4256, 4258
3364, 2426, 4249, 4258, 4136
3365, 4261, 4262, 293, 6
3366, 4262, 4259, 294, 293
3367, 4260, 2463, 4259, 4262
3368, 2461, 4260, 4262, 4261
3369, 4265, 4266, 4263, 1845
3370, 4266, 4260, 2461, 4263
3371, 4264, 2463, 4260, 4266
3372, 2462, 4264, 4266, 4265
3373, 4057, 4269, 4267, 1844
3374, 4269, 4264, 2462, 4267
3375, 4268, 2463, 4264, 4269
3376, 2406, 4268, 4269, 4057
3377, 295, 4270, 4055, 296
3378, 4270, 4268, 2406, 4055
3379, 4259, 2463, 4268, 4270
3380, 294, 4259, 4270, 295
3381, 4197, 4274, 4271, 2057
3382, 4274, 4272, 2466, 4271
3383, 4273, 2467, 4272, 4274
3384, 2446, 4273, 4274, 4197
3385, 4276, 4277, 4207, 2007
3386, 4277, 4273, 2446, 4207
3387, 4275, 2467, 4273, 4277
3388, 2464, 4275, 4277, 4276
3389, 4280, 4281, 4278, 2028
3390, 4281, 4275, 2464, 4278
3391, 4279, 2467, 4275, 4281
3392, 2465, 4279, 4281, 4280
3393, 4283, 4284, 4282, 2030
3394, 4284, 4279, 2465, 4282
3395, 4272, 2467, 4279, 4284
3396, 2466, 4272, 4284, 4283
3397, 4288, 4289, 4285, 1921
3398, 4289, 4286, 2470, 4285
3399, 4287, 2471, 4286, 4289
3400, 2468, 4287, 4289, 4288
3401, 3780, 4292, 4290, 1873
3402, 4292, 4287, 2468, 4290
3403, 4291, 2471, 4287, 4292
3404, 2329, 4291, 4292, 3780
3405, 4294, 4295, 3778, 1890
3406, 4295, 4291, 2329, 3778
3407, 4293, 2471, 4291, 4295
3408, 2469, 4293, 4295, 4294
3409, 4297, 4298, 4296, 1969
3410, 4298, 4293, 2469, 4296
3411, 4286, 2471, 4293, 4298
3412, 2470, 4286, 4298, 4297
3413, 4302, 4303, 4299, 2075
3414, 4303, 4300, 2474, 4299
3415, 4301, 2475, 4300, 4303
3416, 2472, 4301, 4303, 4302
3417, 3170, 4306, 4304, 2080
3418, 4306, 4301, 2472, 4304
3419, 4305, 2475, 4301, 4306
3420, 2136, 4305, 4306, 3170
3421, 4308, 4309, 3168, 2072
3422, 4309, 4305, 2136, 3168
3423, 4307, 2475, 4305, 4309
3424, 2473, 4307, 4309, 4308
3425, 4311, 4312, 4310, 2070
3426, 4312, 4307, 2473, 4310
3427, 4300, 2475, 4307, 4312
3428, 2474, 4300, 4312, 4311
3429, 4315, 4316, 4125, 1979
3430, 4316, 4313, 2424, 4125
3431, 4314, 2479, 4313, 4316
3432, 2476, 4314, 4316, 4315
3433, 4319, 4320, 4317, 2015
3434, 4320, 4314, 2476, 4317
3435, 4318, 2479, 4314, 4320
3436, 2477, 4318, 4320, 4319
3437, 4323, 4324, 4321, 2047
3438, 4324, 4318, 2477, 4321
3439, 4322, 2479, 4318, 4324
3440, 2478, 4322, 4324, 4323
3441, 4127, 4326, 4325, 2006
3442, 4326, 4322, 2478, 4325
3443, 4313, 2479, 4322, 4326
3444, 2424, 4313, 4326, 4127
3445, 71, 4329, 3790, 72
3446, 4329, 4327, 2332, 3790
3447, 4328, 2481, 4327, 4329
3448, 70, 4328, 4329, 71
3449, 292, 4331, 69, 3
3450, 4331, 4328, 70, 69
3451, 4330, 2481, 4328, 4331
3452, 291, 4330, 4331, 292
3453, 4333, 4334, 290, 289
3454, 4334, 4330, 291, 290
3455, 4332, 2481, 4330, 4334
3456, 2480, 4332, 4334, 4333
3457, 3792, 4336, 4335, 1829
3458, 4336, 4332, 2480, 4335
3459, 4327, 2481, 4332, 4336
3460, 2332, 4327, 4336, 3792
3461, 4340, 4341, 4337, 1994
3462, 4341, 4338, 2485, 4337
3463, 4339, 2486, 4338, 4341
3464, 2482, 4339, 4341, 4340
3465, 4344, 4345, 4342, 1969
3466, 4345, 4339, 2482, 4342
3467, 4343, 2486, 4339, 4345
3468, 2483, 4343, 4345, 4344
3469, 4348, 4349, 4346, 1958
3470, 4349, 4343, 2483, 4346
3471, 4347, 2486, 4343, 4349
3472, 2484, 4347, 4349, 4348
3473, 4351, 4352, 4350, 2025
3474, 4352, 4347, 2484, 4350
3475, 4338, 2486, 4347, 4352
3476, 2485, 4338, 4352, 4351
3477, 4356, 4357, 4353, 1981
3478, 4357, 4354, 2489, 4353
3479, 4355, 2490, 4354, 4357
3480, 2487, 4355, 4357, 4356
3481, 4360, 4361, 4358, 1959
3482, 4361, 4355, 2487, 4358
3483, 4359, 2490, 4355, 4361
3484, 2488, 4359, 4361, 4360
3485, 3475, 4364, 4362, 1910
3486, 4364, 4359, 2488, 4362
3487, 4363, 2490, 4359, 4364
3488, 2240, 4363, 4364, 3475
3489, 4365, 4366, 3485, 1951
3490, 4366, 4363, 2240, 3485
3491, 4354, 2490, 4363, 4366
3492, 2489, 4354, 4366, 4365
3493, 3813, 4370, 4367, 1869
3494, 4370, 4368, 2492, 4367
3495, 4369, 2493, 4368, 4370
3496, 2343, 4369, 4370, 3813
3497, 4372, 4373, 3827, 1916
3498, 4373, 4369, 2343, 3827
3499, 4371, 2493, 4369, 4373
3500, 2491, 4371, 4373, 4372
3501, 3629, 4376, 4374, 1840
3502, 4376, 4371, 2491, 4374
3503, 4375, 2493, 4371, 4376
3504, 2289, 4375, 4376, 3629
3505, 4377, 4378, 3641, 1826
3506, 4378, 4375, 2289, 3641
3507, 4368, 2493, 4375, 4378
3508, 2492, 4368, 4378, 4377
3509, 4382, 4383, 4379, 1984
3510, 4383, 4380, 2497, 4379
3511, 4381, 2498, 4380, 4383
3512, 2494, 4381, 4383, 4382
3513, 4386, 4387, 4384, 1948
3514, 4387, 4381, 2494, 4384
3515, 4385, 2498, 4381, 4387
3516, 2495, 4385, 4387, 4386
3517, 4390, 4391, 4388, 1912
3518, 4391, 4385, 2495, 4388
3519, 4389, 2498, 4385, 4391
3520, 2496, 4389, 4391, 4390
3521, 4393, 4394, 4392, 1961
3522, 4394, 4389, 2496, 4392
3523, 4380, 2498, 4389, 4394
3524, 2497, 4380, 4394, 4393
3525, 4398, 4399, 4395, 1933
3526, 4399, 4396, 2500, 4395
3527, 4397, 2501, 4396, 4399
3528, 2499, 4397, 4399, 4398
3529, 4346, 4402, 4400, 1958
3530, 4402, 4397, 2499, 4400
3531, 4401, 2501, 4397, 4402
3532, 2483, 4401, 4402, 4346
3533, 4296, 4404, 4344, 1969
3534, 4404, 4401, 2483, 4344
3535, 4403, 2501, 4401, 4404
3536, 2469, 4403, 4404, 4296
3537, 4405, 4406, 4294, 1890
3538, 4406, 4403, 2469, 4294
3539, 4396, 2501, 4403, 4406
3540, 2500, 4396, 4406, 4405
3541, 3960, 4410, 4407, 2011
3542, 4410, 4408, 2503, 4407
3543, 4409, 2504, 4408, 4410
3544, 2380, 4409, 4410, 3960
3545, 4412, 4413, 3958, 1953
3546, 4413, 4409, 2380, 3958
3547, 4411, 2504, 4409, 4413
3548, 2502, 4411, 4413, 4412
3549, 3930, 4416, 4414, 1983
3550, 4416, 4411, 2502, 4414
3551, 4415, 2504, 4411, 4416
3552, 2372, 4415, 4416, 3930
3553, 4417, 4418, 3928, 2042
3554, 4418, 4415, 2372, 3928
3555, 4408, 2504, 4415, 4418
3556, 2503, 4408, 4418, 4417
3557, 4422, 4423, 4419, 1909
3558, 4423, 4420, 2507, 4419
3559, 4421, 2508, 4420, 4423
3560, 2505, 4421, 4423, 4422
3561, 4426, 4427, 4424, 1976
3562, 4427, 4421, 2505, 4424
3563, 4425, 2508, 4421, 4427
3564, 2506, 4425, 4427, 4426
3565, 3540, 4430, 4428, 1937
3566, 4430, 4425, 2506, 4428
3567, 4429, 2508, 4425, 4430
3568, 2257, 4429, 4430, 3540
3569, 4431, 4432, 3538, 1862
3570, 4432, 4429, 2257, 3538
3571, 4420, 2508, 4429, 4432
3572, 2507, 4420, 4432, 4431
3573, 4436, 4437, 4433, 1865
3574, 4437, 4434, 2512, 4433
3575, 4435, 2513, 4434, 4437
3576, 2509, 4435, 4437, 4436
3577, 4440, 4441, 4438, 1968
3578, 4441, 4435, 2509, 4438
3579, 4439, 2513, 4435, 4441
3580, 2510, 4439, 4441, 4440
3581, 4444, 4445, 4442, 1928
3582, 4445, 4439, 2510, 4442
3583, 4443, 2513, 4439, 4445
3584, 2511, 4443, 4445, 4444
3585, 4447, 4448, 4446, 1839
3586, 4448, 4443, 2511, 4446
3587, 4434, 2513, 4443, 4448
3588, 2512, 4434, 4448, 4447
3589, 4452, 4453, 4449, 1960
3590, 4453, 4450, 2516, 4449
3591, 4451, 2517, 4450, 4453
3592, 2514, 4451, 4453, 4452
3593, 3718, 4456, 4454, 1931
3594, 4456, 4451, 2514, 4454
3595, 4455, 2517, 4451, 4456
3596, 2311, 4455, 4456, 3718
3597, 4458, 4459, 3716, 1874
3598, 4459, 4455, 2311, 3716
3599, 4457, 2517, 4455, 4459
3600, 2515, 4457, 4459, 4458
3601, 4461, 4462, 4460, 1967
3602, 4462, 4457, 2515, 4460
3603, 4450, 2517, 4457, 4462
3604, 2516, 4450, 4462, 4461
3605, 4466, 4467, 4463, 1935
3606, 4467, 4464, 2521, 4463
3607, 4465, 2522, 4464, 4467
3608, 2518, 4465, 4467, 4466
3609, 4470, 4471, 4468, 1894
3610, 4471, 4465, 2518, 4468
3611, 4469, 2522, 4465, 4471
3612, 2519, 4469, 4471, 4470
3613, 4474, 4475, 4472, 1997
3614, 4475, 4469, 2519, 4472
3615, 4473, 2522, 4469, 4475
3616, 2520, 4473, 4475, 4474
3617, 4477, 4478, 4476, 1961
3618, 4478, 4473, 2520, 4476
3619, 4464, 2522, 4473, 4478
3620, 2521, 4464, 4478, 4477
3621, 4384, 4481, 3414, 1948
3622, 4481, 4479, 2217, 3414
3623, 4480, 2525, 4479, 4481
3624, 2494, 4480, 4481, 4384
3625, 4483, 4484, 4382, 1984
3626, 4484, 4480, 2494, 4382
3627, 4482, 2525, 4480, 4484
3628, 2523, 4482, 4484, 4483
3629, 4487, 4488, 4485, 2008
3630, 4488, 4482, 2523, 4485
3631, 4486, 2525, 4482, 4488
3632, 2524, 4486, 4488, 4487
3633, 3416, 4490, 4489, 1980
3634, 4490, 4486, 2524, 4489
3635, 4479, 2525, 4486, 4490
3636, 2217, 4479, 4490, 3416
3637, 3683, 4494, 4491, 1908
3638, 4494, 4492, 2527, 4491
3639, 4493, 2528, 4492, 4494
3640, 2302, 4493, 4494, 3683
3641, 4496, 4497, 3681, 1982
3642, 4497, 4493, 2302, 3681
3643, 4495, 2528, 4493, 4497
3644, 2526, 4495, 4497, 4496
3645, 3919, 4500, 4498, 2026
3646, 4500, 4495, 2526, 4498
3647, 4499, 2528, 4495, 4500
3648, 2369, 4499, 4500, 3919
3649, 4501, 4502, 3917, 1974
3650, 4502, 4499, 2369, 3917
3651, 4492, 2528, 4499, 4502
3652, 2527, 4492, 4502, 4501
3653, 3878, 4505, 3654, 2064
3654, 4505, 4503, 2293, 3654
3655, 4504, 2531, 4503, 4505
3656, 2357, 4504, 4505, 3878
3657, 4507, 4508, 3876, 2056
3658, 4508, 4504, 2357, 3876
3659, 4506, 2531, 4504, 4508
3660, 2529, 4506, 4508, 4507
3661, 4511, 4512, 4509, 2039
3662, 4512, 4506, 2529, 4509
3663, 4510, 2531, 4506, 4512
3664, 2530, 4510, 4512, 4511
3665, 3656, 4514, 4513, 2038
3666, 4514, 4510, 2530, 4513
3667, 4503, 2531, 4510, 4514
3668, 2293, 4503, 4514, 3656
3669, 4518, 4519, 4515, 2048
3670, 4519, 4516, 2534, 4515
3671, 4517, 2535, 4516, 4519
3672, 2532, 4517, 4519, 4518
3673, 4485, 4522, 4520, 2008
3674, 4522, 4517, 2532, 4520
3675, 4521, 2535, 4517, 4522
3676, 2523, 4521, 4522, 4485
3677, 4524, 4525, 4483, 1984
3678, 4525, 4521, 2523, 4483
3679, 4523, 2535, 4521, 4525
3680, 2533, 4523, 4525, 4524
3681, 4527, 4528, 4526, 2024
3682, 4528, 4523, 2533, 4526
3683, 4516, 2535, 4523, 4528
3684, 2534, 4516, 4528, 4527
3685, 4531, 4532, 4417, 2042
3686, 4532, 4529, 2503, 4417
3687, 4530, 2539, 4529, 4532
3688, 2536, 4530, 4532, 4531
3689, 4535, 4536, 4533, 2066
3690, 4536, 4530, 2536, 4533
3691, 4534, 2539, 4530, 4536
3692, 2537, 4534, 4536, 4535
3693, 4539, 4540, 4537, 2059
3694, 4540, 4534, 2537, 4537
3695, 4538, 2539, 4534, 4540
3696, 2538, 4538, 4540, 4539
3697, 4407, 4542, 4541, 2011
3698, 4542, 4538, 2538, 4541
3699, 4529, 2539, 4538, 4542
3700, 2503, 4529, 4542, 4407
3701, 4533, 4546, 4543, 2066
3702, 4546, 4544, 2540, 4543
3703, 4545, 2541, 4544, 4546
3704, 2536, 4545, 4546, 4533
3705, 3925, 4548, 4531, 2042
3706, 4548, 4545, 2536, 4531
3707, 4547, 2541, 4545, 4548
3708, 2374, 4547, 4548, 3925
3709, 3985, 4550, 3937, 2033
3710, 4550, 4547, 2374, 3937
3711, 4549, 2541, 4547, 4550
3712, 2388, 4549, 4550, 3985
3713, 4551, 4552, 3983, 2052
3714, 4552, 4549, 2388, 3983
3715, 4544, 2541, 4549, 4552
3716, 2540, 4544, 4552, 4551
3717, 3776, 4555, 4405, 1890
3718, 4555, 4553, 2500, 4405
3719, 4554, 2543, 4553, 4555
3720, 2328, 4554, 4555, 3776
3721, 4267, 4557, 3774, 1844
3722, 4557, 4554, 2328, 3774
3723, 4556, 2543, 4554, 4557
3724, 2462, 4556, 4557, 4267
3725, 4559, 4560, 4265, 1845
3726, 4560, 4556, 2462, 4265
3727, 4558, 2543, 4556, 4560
3728, 2542, 4558, 4560, 4559
3729, 4395, 4562, 4561, 1933
3730, 4562, 4558, 2542, 4561
3731, 4553, 2543, 4558, 4562
3732, 2500, 4553, 4562, 4395
3733, 4541, 4565, 3962, 2011
3734, 4565, 4563, 2381, 3962
3735, 4564, 2546, 4563, 4565
3736, 2538, 4564, 4565, 4541
3737, 4567, 4568, 4539, 2059
3738, 4568, 4564, 2538, 4539
3739, 4566, 2546, 4564, 4568
3740, 2544, 4566, 4568, 4567
3741, 4571, 4572, 4569, 2049
3742, 4572, 4566, 2544, 4569
3743, 4570, 2546, 4566, 4572
3744, 2545, 4570, 4572, 4571
3745, 3964, 4574, 4573, 2023
3746, 4574, 4570, 2545, 4573
3747, 4563, 2546, 4570, 4574
3748, 2381, 4563, 4574, 3964
3749, 4578, 4579, 4575, 1843
3750, 4579, 4576, 2548, 4575
3751, 4577, 2549, 4576, 4579
3752, 2547, 4577, 4579, 4578
3753, 3978, 4582, 4580, 1822
3754, 4582, 4577, 2547, 4580
3755, 4581, 2549, 4577, 4582
3756, 2385, 4581, 4582, 3978
3757, 4468, 4584, 3976, 1894
3758, 4584, 4581, 2385, 3976
3759, 4583, 2549, 4581, 4584
3760, 2518, 4583, 4584, 4468
3761, 4585, 4586, 4466, 1935
3762, 4586, 4583, 2518, 4466
3763, 4576, 2549, 4583, 4586
3764, 2548, 4576, 4586, 4585
3765, 4589, 4590, 3441, 1956
3766, 4590, 4587, 2226, 3441
3767, 4588, 2553, 4587, 4590
3768, 2550, 4588, 4590, 4589
3769, 4593, 4594, 4591, 1996
3770, 4594, 4588, 2550, 4591
3771, 4592, 2553, 4588, 4594
3772, 2551, 4592, 4594, 4593
3773, 4597, 4598, 4595, 1919
3774, 4598, 4592, 2551, 4595
3775, 4596, 2553, 4592, 4598
3776, 2552, 4596, 4598, 4597
3777, 3431, 4600, 4599, 1932
3778, 4600, 4596, 2552, 4599
3779, 4587, 2553, 4596, 4600
3780, 2226, 4587, 4600, 3431
3781, 3298, 4603, 4440, 1968
3782, 4603, 4601, 2510, 4440
3783, 4602, 2554, 4601, 4603
3784, 2179, 4602, 4603, 3298
3785, 4074, 4605, 3296, 1988
3786, 4605, 4602, 2179, 3296
3787, 4604, 2554, 4602, 4605
3788, 2410, 4604, 4605, 4074
3789, 4047, 4607, 4072, 1975
3790, 4607, 4604, 2410, 4072
3791, 4606, 2554, 4604, 4607
3792, 2403, 4606, 4607, 4047
3793, 4442, 4608, 4045, 1928
3794, 4608, 4606, 2403, 4045
3795, 4601, 2554, 4606, 4608
3796, 2510, 4601, 4608, 4442
3797, 4491, 4611, 4020, 1908
3798, 4611, 4609, 2396, 4020
3799, 4610, 2557, 4609, 4611
3800, 2527, 4610, 4611, 4491
3801, 4613, 4614, 4501, 1974
3802, 4614, 4610, 2527, 4501
3803, 4612, 2557, 4610, 4614
3804, 2555, 4612, 4614, 4613
3805, 4617, 4618, 4615, 1887
3806, 4618, 4612, 2555, 4615
3807, 4616, 2557, 4612, 4618
3808, 2556, 4616, 4618, 4617
3809, 4022, 4620, 4619, 1875
3810, 4620, 4616, 2556, 4619
3811, 4609, 2557, 4616, 4620
3812, 2396, 4609, 4620, 4022
3813, 4623, 4624, 4535, 2066
3814, 4624, 4621, 2537, 4535
3815, 4622, 2561, 4621, 4624
3816, 2558, 4622, 4624, 4623
3817, 4627, 4628, 4625, 2065
3818, 4628, 4622, 2558, 4625
3819, 4626, 2561, 4622, 4628
3820, 2559, 4626, 4628, 4627
3821, 4631, 4632, 4629, 2053
3822, 4632, 4626, 2559, 4629
3823, 4630, 2561, 4626, 4632
3824, 2560, 4630, 4632, 4631
3825, 4537, 4634, 4633, 2059
3826, 4634, 4630, 2560, 4633
3827, 4621, 2561, 4630, 4634
3828, 2537, 4621, 4634, 4537
3829, 288, 4637, 4333, 289
3830, 4637, 4635, 2480, 4333
3831, 4636, 2564, 4635, 4637
3832, 287, 4636, 4637, 288
3833, 4639, 4640, 286, 285
3834, 4640, 4636, 287, 286
3835, 4638, 2564, 4636, 4640
3836, 2562, 4638, 4640, 4639
3837, 4643, 4644, 4641, 1886
3838, 4644, 4638, 2562, 4641
3839, 4642, 2564, 4638, 4644
3840, 2563, 4642, 4644, 4643
3841, 4335, 4646, 4645, 1829
3842, 4646, 4642, 2563, 4645
3843, 4635, 2564, 4642, 4646
3844, 2480, 4635, 4646, 4335
3845, 4650, 4651, 4647, 1866
3846, 4651, 4648, 2566, 4647
3847, 4649, 2567, 4648, 4651
3848, 2565, 4649, 4651, 4650
3849, 4463, 4654, 4652, 1935
3850, 4654, 4649, 2565, 4652
3851, 4653, 2567, 4649, 4654
3852, 2521, 4653, 4654, 4463
3853, 4392, 4656, 4477, 1961
3854, 4656, 4653, 2521, 4477
3855, 4655, 2567, 4653, 4656
3856, 2496, 4655, 4656, 4392
3857, 4657, 4658, 4390, 1912
3858, 4658, 4655, 2496, 4390
3859, 4648, 2567, 4655, 4658
3860, 2566, 4648, 4658, 4657
3861, 3826, 4662, 4659, 1916
3862, 4662, 4660, 2570, 4659
3863, 4661, 2571, 4660, 4662
3864, 2342, 4661, 4662, 3826
3865, 4664, 4665, 3824, 1965
3866, 4665, 4661, 2342, 3824
3867, 4663, 2571, 4661, 4665
3868, 2568, 4663, 4665, 4664
3869, 4668, 4669, 4666, 1967
3870, 4669, 4663, 2568, 4666
3871, 4667, 2571, 4663, 4669
3872, 2569, 4667, 4669, 4668
3873, 4671, 4672, 4670, 1945
3874, 4672, 4667, 2569, 4670
3875, 4660, 2571, 4667, 4672
3876, 2570, 4660, 4672, 4671
3877, 4676, 4677, 4673, 1905
3878, 4677, 4674, 2573, 4673
3879, 4675, 2574, 4674, 4677
3880, 2572, 4675, 4677, 4676
3881, 4615, 4680, 4678, 1887
3882, 4680, 4675, 2572, 4678
3883, 4679, 2574, 4675, 4680
3884, 2555, 4679, 4680, 4615
3885, 3915, 4682, 4613, 1974
3886, 4682, 4679, 2555, 4613
3887, 4681, 2574, 4679, 4682
3888, 2368, 4681, 4682, 3915
3889, 4683, 4684, 3913, 1924
3890, 4684, 4681, 2368, 3913
3891, 4674, 2574, 4681, 4684
3892, 2573, 4674, 4684, 4683
3893, 4476, 4687, 4393, 1961
3894, 4687, 4685, 2497, 4393
3895, 4686, 2576, 4685, 4687
3896, 2520, 4686, 4687, 4476
3897, 4689, 4690, 4474, 1997
3898, 4690, 4686, 2520, 4474
3899, 4688, 2576, 4686, 4690
3900, 2575, 4688, 4690, 4689
3901, 4526, 4693, 4691, 2024
3902, 4693, 4688, 2575, 4691
3903, 4692, 2576, 4688, 4693
3904, 2533, 4692, 4693, 4526
3905, 4379, 4694, 4524, 1984
3906, 4694, 4692, 2533, 4524
3907, 4685, 2576, 4692, 4694
3908, 2497, 4685, 4694, 4379
3909, 3936, 4697, 3987, 2033
3910, 4697, 4695, 2389, 3987
3911, 4696, 2579, 4695, 4697
3912, 2373, 4696, 4697, 3936
3913, 4699, 4700, 3934, 2022
3914, 4700, 4696, 2373, 3934
3915, 4698, 2579, 4696, 4700
3916, 2577, 4698, 4700, 4699
3917, 4703, 4704, 4701, 1987
3918, 4704, 4698, 2577, 4701
3919, 4702, 2579, 4698, 4704
3920, 2578, 4702, 4704, 4703
3921, 3989, 4706, 4705, 2012
3922, 4706, 4702, 2578, 4705
3923, 4695, 2579, 4702, 4706
3924, 2389, 4695, 4706, 3989
3925, 4633, 4709, 4567, 2059
3926, 4709, 4707, 2544, 4567
3927, 4708, 2581, 4707, 4709
3928, 2560, 4708, 4709, 4633
3929, 4711, 4712, 4631, 2053
3930, 4712, 4708, 2560, 4631
3931, 4710, 2581, 4708, 4712
3932, 2580, 4710, 4712, 4711
3933, 3555, 4715, 4713, 2036
3934, 4715, 4710, 2580, 4713
3935, 4714, 2581, 4710, 4715
3936, 2266, 4714, 4715, 3555
3937, 4569, 4716, 3565, 2049
3938, 4716, 4714, 2266, 3565
3939, 4707, 2581, 4714, 4716
3940, 2544, 4707, 4716, 4569
3941, 3840, 4720, 4717, 1884
3942, 4720, 4718, 2584, 4717
3943, 4719, 2585, 4718, 4720
3944, 2346, 4719, 4720, 3840
3945, 4722, 4723, 3838, 1816
3946, 4723, 4719, 2346, 3838
3947, 4721, 2585, 4719, 4723
3948, 2582, 4721, 4723, 4722
3949, 4726, 4727, 4724, 1962
3950, 4727, 4721, 2582, 4724
3951, 4725, 2585, 4721, 4727
3952, 2583, 4725, 4727, 4726
3953, 4729, 4730, 4728, 1918
3954, 4730, 4725, 2583, 4728
3955, 4718, 2585, 4725, 4730
3956, 2584, 4718, 4730, 4729
3957, 4734, 4735, 4731, 2009
3958, 4735, 4732, 2589, 4731
3959, 4733, 2590, 4732, 4735
3960, 2586, 4733, 4735, 4734
3961, 4738, 4739, 4736, 1947
3962, 4739, 4733, 2586, 4736
3963, 4737, 2590, 4733, 4739
3964, 2587, 4737, 4739, 4738
3965, 4742, 4743, 4740, 1996
3966, 4743, 4737, 2587, 4740
3967, 4741, 2590, 4737, 4743
3968, 2588, 4741, 4743, 4742
3969, 4745, 4746, 4744, 2014
3970, 4746, 4741, 2588, 4744
3971, 4732, 2590, 4741, 4746
3972, 2589, 4732, 4746, 4745
3973, 4750, 4751, 4747, 1922
3974, 4751, 4748, 2594, 4747
3975, 4749, 2595, 4748, 4751
3976, 2591, 4749, 4751, 4750
3977, 4754, 4755, 4752, 1891
3978, 4755, 4749, 2591, 4752
3979, 4753, 2595, 4749, 4755
3980, 2592, 4753, 4755, 4754
3981, 4758, 4759, 4756, 1819
3982, 4759, 4753, 2592, 4756
3983, 4757, 2595, 4753, 4759
3984, 2593, 4757, 4759, 4758
3985, 4761, 4762, 4760, 1867
3986, 4762, 4757, 2593, 4760
3987, 4748, 2595, 4757, 4762
3988, 2594, 4748, 4762, 4761
3989, 4231, 4765, 4412, 1953
3990, 4765, 4763, 2502, 4412
3991, 4764, 2596, 4763, 4765
3992, 2453, 4764, 4765, 4231
3993, 4728, 4767, 4229, 1918
3994, 4767, 4764, 2453, 4229
3995, 4766, 2596, 4764, 4767
3996, 2583, 4766, 4767, 4728
3997, 3274, 4769, 4726, 1962
3998, 4769, 4766, 2583, 4726
3999, 4768, 2596, 4766, 4769
4000, 2171, 4768, 4769, 3274
4001, 4414, 4770, 3272, 1983
4002, 4770, 4768, 2171, 3272
4003, 4763, 2596, 4768, 4770
4004, 2502, 4763, 4770, 4414
4005, 4774, 4775, 4771, 2001
4006, 4775, 4772, 2599, 4771
4007, 4773, 2600, 4772, 4775
4008, 2597, 4773, 4775, 4774
4009, 4778, 4779, 4776, 2017
4010, 4779, 4773, 2597, 4776
4011, 4777, 2600, 4773, 4779
4012, 2598, 4777, 4779, 4778
4013, 4350, 4782, 4780, 2025
4014, 4782, 4777, 2598, 4780
4015, 4781, 2600, 4777, 4782
4016, 2484, 4781, 4782, 4350
4017, 4783, 4784, 4348, 1958
4018, 4784, 4781, 2484, 4348
4019, 4772, 2600, 4781, 4784
4020, 2599, 4772, 4784, 4783
4021, 4788, 4789, 4785, 1846
4022, 4789, 4786, 2602, 4785
4023, 4787, 2603, 4786, 4789
4024, 2601, 4787, 4789, 4788
4025, 4575, 4792, 4790, 1843
4026, 4792, 4787, 2601, 4790
4027, 4791, 2603, 4787, 4792
4028, 2548, 4791, 4792, 4575
4029, 4652, 4794, 4585, 1935
4030, 4794, 4791, 2548, 4585
4031, 4793, 2603, 4791, 4794
4032, 2565, 4793, 4794, 4652
4033, 4795, 4796, 4650, 1866
4034, 4796, 4793, 2565, 4650
4035, 4786, 2603, 4793, 4796
4036, 2602, 4786, 4796, 4795
4037, 4472, 4800, 4797, 1997
4038, 4800, 4798, 2604, 4797
4039, 4799, 2605, 4798, 4800
4040, 2519, 4799, 4800, 4472
4041, 3974, 4802, 4470, 1894
4042, 4802, 4799, 2519, 4470
4043, 4801, 2605, 4799, 4802
4044, 2384, 4801, 4802, 3974
4045, 4454, 4804, 3972, 1931
4046, 4804, 4801, 2384, 3972
4047, 4803, 2605, 4801, 4804
4048, 2514, 4803, 4804, 4454
4049, 4805, 4806, 4452, 1960
4050, 4806, 4803, 2514, 4452
4051, 4798, 2605, 4803, 4806
4052, 2604, 4798, 4806, 4805
4053, 4400, 4809, 4783, 1958
4054, 4809, 4807, 2599, 4783
4055, 4808, 2608, 4807, 4809
4056, 2499, 4808, 4809, 4400
4057, 4811, 4812, 4398, 1933
4058, 4812, 4808, 2499, 4398
4059, 4810, 2608, 4808, 4812
4060, 2606, 4810, 4812, 4811
4061, 4815, 4816, 4813, 1922
4062, 4816, 4810, 2606, 4813
4063, 4814, 2608, 4810, 4816
4064, 2607, 4814, 4816, 4815
4065, 4771, 4818, 4817, 2001
4066, 4818, 4814, 2607, 4817
4067, 4807, 2608, 4814, 4818
4068, 2599, 4807, 4818, 4771
4069, 3089, 4821, 4061, 1825
4070, 4821, 4819, 2407, 4061
4071, 4820, 2609, 4819, 4821
4072, 2113, 4820, 4821, 3089
4073, 4641, 4823, 3099, 1886
4074, 4823, 4820, 2113, 3099
4075, 4822, 2609, 4820, 4823
4076, 2562, 4822, 4823, 4641
4077, 284, 4825, 4639, 285
4078, 4825, 4822, 2562, 4639
4079, 4824, 2609, 4822, 4825
4080, 283, 4824, 4825, 284
4081, 4063, 4826, 282, 5
4082, 4826, 4824, 283, 282
4083, 4819, 2609, 4824, 4826
4084, 2407, 4819, 4826, 4063
4085, 4829, 4830, 4204, 2043
4086, 4830, 4827, 2445, 4204
4087, 4828, 2613, 4827, 4830
4088, 2610, 4828, 4830, 4829
4089, 4833, 4834, 4831, 2017
4090, 4834, 4828, 2610, 4831
4091, 4832, 2613, 4828, 4834
4092, 2611, 4832, 4834, 4833
4093, 4837, 4838, 4835, 1981
4094, 4838, 4832, 2611, 4835
4095, 4836, 2613, 4832, 4838
4096, 2612, 4836, 4838, 4837
4097, 4206, 4840, 4839, 2007
4098, 4840, 4836, 2612, 4839
4099, 4827, 2613, 4836, 4840
4100, 2445, 4827, 4840, 4206
4101, 4843, 4844, 3434, 1932
4102, 4844, 4841, 2224, 3434
4103, 4842, 2616, 4841, 4844
4104, 2614, 4842, 4844, 4843
4105, 4847, 4848, 4845, 1881
4106, 4848, 4842, 2614, 4845
4107, 4846, 2616, 4842, 4848
4108, 2615, 4846, 4848, 4847
4109, 3531, 4851, 4849, 1901
4110, 4851, 4846, 2615, 4849
4111, 4850, 2616, 4846, 4851
4112, 2258, 4850, 4851, 3531
4113, 3436, 4852, 3541, 1937
4114, 4852, 4850, 2258, 3541
4115, 4841, 2616, 4850, 4852
4116, 2224, 4841, 4852, 3436
4117, 3043, 4856, 4853, 1828
4118, 4856, 4854, 2618, 4853
4119, 4855, 2619, 4854, 4856
4120, 2098, 4855, 4856, 3043
4121, 4858, 4859, 3053, 1926
4122, 4859, 4855, 2098, 3053
4123, 4857, 2619, 4855, 4859
4124, 2617, 4857, 4859, 4858
4125, 3713, 4862, 4860, 1874
4126, 4862, 4857, 2617, 4860
4127, 4861, 2619, 4857, 4862
4128, 2314, 4861, 4862, 3713
4129, 4863, 4864, 3727, 1838
4130, 4864, 4861, 2314, 3727
4131, 4854, 2619, 4861, 4864
4132, 2618, 4854, 4864, 4863
4133, 4580, 4867, 4253, 1822
4134, 4867, 4865, 2459, 4253
4135, 4866, 2621, 4865, 4867
4136, 2547, 4866, 4867, 4580
4137, 4869, 4870, 4578, 1843
4138, 4870, 4866, 2547, 4578
4139, 4868, 2621, 4866, 4870
4140, 2620, 4868, 4870, 4869
4141, 429, 4873, 4871, 430
4142, 4873, 4868, 2620, 4871
4143, 4872, 2621, 4868, 4873
4144, 428, 4872, 4873, 429
4145, 4255, 4874, 427, 33
4146, 4874, 4872, 428, 427
4147, 4865, 2621, 4872, 4874
4148, 2459, 4865, 4874, 4255
4149, 3882, 4877, 3164, 2079
4150, 4877, 4875, 2135, 3164
4151, 4876, 2623, 4875, 4877
4152, 2358, 4876, 4877, 3882
4153, 3652, 4879, 3880, 2064
4154, 4879, 4876, 2358, 3880
4155, 4878, 2623, 4876, 4879
4156, 2292, 4878, 4879, 3652
4157, 4881, 4882, 3650, 2076
4158, 4882, 4878, 2292, 3650
4159, 4880, 2623, 4878, 4882
4160, 2622, 4880, 4882, 4881
4161, 3166, 4884, 4883, 2072
4162, 4884, 4880, 2622, 4883
4163, 4875, 2623, 4880, 4884
4164, 2135, 4875, 4884, 3166
4165, 3130, 4887, 3065, 1955
4166, 4887, 4885, 2102, 3065
4167, 4886, 2625, 4885, 4887
4168, 2123, 4886, 4887, 3130
4169, 3388, 4889, 3128, 1990
4170, 4889, 4886, 2123, 3128
4171, 4888, 2625, 4886, 4889
4172, 2208, 4888, 4889, 3388
4173, 4891, 4892, 3386, 1964
4174, 4892, 4888, 2208, 3386
4175, 4890, 2625, 4888, 4892
4176, 2624, 4890, 4892, 4891
4177, 3055, 4894, 4893, 1915
4178, 4894, 4890, 2624, 4893
4179, 4885, 2625, 4890, 4894
4180, 2102, 4885, 4894, 3055
4181, 4790, 4897, 4869, 1843
4182, 4897, 4895, 2620, 4869
4183, 4896, 2627, 4895, 4897
4184, 2601, 4896, 4897, 4790
4185, 4899, 4900, 4788, 1846
4186, 4900, 4896, 2601, 4788
4187, 4898, 2627, 4896, 4900
4188, 2626, 4898, 4900, 4899
4189, 433, 4903, 4901, 32
4190, 4903, 4898, 2626, 4901
4191, 4902, 2627, 4898, 4903
4192, 432, 4902, 4903, 433
4193, 4871, 4904, 431, 430
4194, 4904, 4902, 432, 431
4195, 4895, 2627, 4902, 4904
4196, 2620, 4895, 4904, 4871
4197, 4908, 4909, 4905, 1833
4198, 4909, 4906, 2629, 4905
4199, 4907, 2630, 4906, 4909
4200, 2628, 4907, 4909, 4908
4201, 366, 4912, 4910, 18
4202, 4912, 4907, 2628, 4910
4203, 4911, 2630, 4907, 4912
4204, 365, 4911, 4912, 366
4205, 120, 4914, 364, 19
4206, 4914, 4911, 365, 364
4207, 4913, 2630, 4911, 4914
4208, 121, 4913, 4914, 120
4209, 4915, 4916, 122, 123
4210, 4916, 4913, 121, 122
4211, 4906, 2630, 4913, 4916
4212, 2629, 4906, 4916, 4915
4213, 369, 4919, 130, 21
4214, 4919, 4917, 129, 130
4215, 4918, 2631, 4917, 4919
4216, 368, 4918, 4919, 369
4217, 4153, 4921, 367, 20
4218, 4921, 4918, 368, 367
4219, 4920, 2631, 4918, 4921
4220, 2431, 4920, 4921, 4153
4221, 3226, 4923, 4151, 1834
4222, 4923, 4920, 2431, 4151
4223, 4922, 2631, 4920, 4923
4224, 2155, 4922, 4923, 3226
4225, 128, 4924, 3224, 127
4226, 4924, 4922, 2155, 3224
4227, 4917, 2631, 4922, 4924
4228, 129, 4917, 4924, 128
4229, 3998, 4928, 4925, 1927
4230, 4928, 4926, 2634, 4925
4231, 4927, 2635, 4926, 4928
4232, 2391, 4927, 4928, 3998
4233, 4930, 4931, 3996, 1882
4234, 4931, 4927, 2391, 3996
4235, 4929, 2635, 4927, 4931
4236, 2632, 4929, 4931, 4930
4237, 4934, 4935, 4932, 1963
4238, 4935, 4929, 2632, 4932
4239, 4933, 2635, 4929, 4935
4240, 2633, 4933, 4935, 4934
4241, 4937, 4938, 4936, 1952
4242, 4938, 4933, 2633, 4936
4243, 4926, 2635, 4933, 4938
4244, 2634, 4926, 4938, 4937
4245, 4752, 4942, 4939, 1891
4246, 4942, 4940, 2636, 4939
4247, 4941, 2637, 4940, 4942
4248, 2591, 4941, 4942, 4752
4249, 4813, 4944, 4750, 1922
4250, 4944, 4941, 2591, 4750
4251, 4943, 2637, 4941, 4944
4252, 2606, 4943, 4944, 4813
4253, 4561, 4946, 4811, 1933
4254, 4946, 4943, 2606, 4811
4255, 4945, 2637, 4943, 4946
4256, 2542, 4945, 4946, 4561
4257, 4947, 4948, 4559, 1845
4258, 4948, 4945, 2542, 4559
4259, 4940, 2637, 4945, 4948
4260, 2636, 4940, 4948, 4947
4261, 4951, 4952, 3347, 1820
4262, 4952, 4949, 2195, 3347
4263, 4950, 2639, 4949, 4952
4264, 2638, 4950, 4952, 4951
4265, 4433, 4955, 4953, 1865
4266, 4955, 4950, 2638, 4953
4267, 4954, 2639, 4950, 4955
4268, 2512, 4954, 4955, 4433
4269, 3028, 4957, 4447, 1839
4270, 4957, 4954, 2512, 4447
4271, 4956, 2639, 4954, 4957
4272, 2089, 4956, 4957, 3028
4273, 3339, 4958, 3026, 13
4274, 4958, 4956, 2089, 3026
4275, 4949, 2639, 4956, 4958
4276, 2195, 4949, 4958, 3339
4277, 111, 4962, 4959, 112
4278, 4962, 4960, 2641, 4959
4279, 4961, 2642, 4960, 4962
4280, 110, 4961, 4962, 111
4281, 3634, 4964, 109, 108
4282, 4964, 4961, 110, 109
4283, 4963, 2642, 4961, 4964
4284, 2287, 4963, 4964, 3634
4285, 4966, 4967, 3632, 1840
4286, 4967, 4963, 2287, 3632
4287, 4965, 2642, 4963, 4967
4288, 2640, 4965, 4967, 4966
4289, 4969, 4970, 4968, 1879
4290, 4970, 4965, 2640, 4968
4291, 4960, 2642, 4965, 4970
4292, 2641, 4960, 4970, 4969
4293, 4845, 4974, 4971, 1881
4294, 4974, 4972, 2643, 4971
4295, 4973, 2644, 4972, 4974
4296, 2614, 4973, 4974, 4845
4297, 4599, 4976, 4843, 1932
4298, 4976, 4973, 2614, 4843
4299, 4975, 2644, 4973, 4976
4300, 2552, 4975, 4976, 4599
4301, 3014, 4978, 4597, 1919
4302, 4978, 4975, 2552, 4597
4303, 4977, 2644, 4975, 4978
4304, 2085, 4977, 4978, 3014
4305, 4979, 4980, 3012, 1878
4306, 4980, 4977, 2085, 3012
4307, 4972, 2644, 4977, 4980
4308, 2643, 4972, 4980, 4979
4309, 4983, 4984, 3132, 1955
4310, 4984, 4981, 2124, 3132
4311, 4982, 2647, 4981, 4984
4312, 2645, 4982, 4984, 4983
4313, 4987, 4988, 4985, 1925
4314, 4988, 4982, 2645, 4985
4315, 4986, 2647, 4982, 4988
4316, 2646, 4986, 4988, 4987
4317, 4119, 4991, 4989, 1950
4318, 4991, 4986, 2646, 4989
4319, 4990, 2647, 4986, 4991
4320, 2422, 4990, 4991, 4119
4321, 3134, 4992, 4117, 1992
4322, 4992, 4990, 2422, 4117
4323, 4981, 2647, 4990, 4992
4324, 2124, 4981, 4992, 3134
4325, 3305, 4996, 4993, 2060
4326, 4996, 4994, 2649, 4993
4327, 4995, 2650, 4994, 4996
4328, 2185, 4995, 4996, 3305
4329, 4998, 4999, 3315, 2069
4330, 4999, 4995, 2185, 3315
4331, 4997, 2650, 4995, 4999
4332, 2648, 4997, 4999, 4998
4333, 3759, 5002, 5000, 2054
4334, 5002, 4997, 2648, 5000
4335, 5001, 2650, 4997, 5002
4336, 2326, 5001, 5002, 3759
4337, 5003, 5004, 3769, 2032
4338, 5004, 5001, 2326, 3769
4339, 4994, 2650, 5001, 5004
4340, 2649, 4994, 5004, 5003
4341, 3359, 5007, 3135, 1992
4342, 5007, 5005, 2125, 3135
4343, 5006, 2652, 5005, 5007
4344, 2202, 5006, 5007, 3359
4345, 3040, 5009, 3369, 2050
4346, 5009, 5006, 2202, 3369
4347, 5008, 2652, 5006, 5009
4348, 2093, 5008, 5009, 3040
4349, 5011, 5012, 3038, 2029
4350, 5012, 5008, 2093, 3038
4351, 5010, 2652, 5008, 5012
4352, 2651, 5010, 5012, 5011
4353, 3125, 5014, 5013, 1990
4354, 5014, 5010, 2651, 5013
4355, 5005, 2652, 5010, 5014
4356, 2125, 5005, 5014, 3125
4357, 4705, 5017, 3895, 2012
4358, 5017, 5015, 2362, 3895
4359, 5016, 2655, 5015, 5017
4360, 2578, 5016, 5017, 4705
4361, 5019, 5020, 4703, 1987
4362, 5020, 5016, 2578, 4703
4363, 5018, 2655, 5016, 5020
4364, 2653, 5018, 5020, 5019
4365, 5023, 5024, 5021, 1952
4366, 5024, 5018, 2653, 5021
4367, 5022, 2655, 5018, 5024
4368, 2654, 5022, 5024, 5023
4369, 3885, 5026, 5025, 1985
4370, 5026, 5022, 2654, 5025
4371, 5015, 2655, 5022, 5026
4372, 2362, 5015, 5026, 3885
4373, 5029, 5030, 3470, 1936
4374, 5030, 5027, 2235, 3470
4375, 5028, 2657, 5027, 5030
4376, 2656, 5028, 5030, 5029
4377, 4388, 5033, 5031, 1912
4378, 5033, 5028, 2656, 5031
4379, 5032, 2657, 5028, 5033
4380, 2495, 5032, 5033, 4388
4381, 3412, 5035, 4386, 1948
4382, 5035, 5032, 2495, 4386
4383, 5034, 2657, 5032, 5035
4384, 2216, 5034, 5035, 3412
4385, 3472, 5036, 3410, 1971
4386, 5036, 5034, 2216, 3410
4387, 5027, 2657, 5034, 5036
4388, 2235, 5027, 5036, 3472
4389, 5040, 5041, 5037, 2037
4390, 5041, 5038, 2659, 5037
4391, 5039, 2660, 5038, 5041
4392, 2658, 5039, 5041, 5040
4393, 4993, 5044, 5042, 2060
4394, 5044, 5039, 2658, 5042
4395, 5043, 2660, 5039, 5044
4396, 2649, 5043, 5044, 4993
4397, 3668, 5046, 5003, 2032
4398, 5046, 5043, 2649, 5003
4399, 5045, 2660, 5043, 5046
4400, 2297, 5045, 5046, 3668
4401, 5047, 5048, 3666, 1998
4402, 5048, 5045, 2297, 3666
4403, 5038, 2660, 5045, 5048
4404, 2659, 5038, 5048, 5047
4405, 4160, 5052, 5049, 1914
4406, 5052, 5050, 2661, 5049
4407, 5051, 2662, 5050, 5052
4408, 2433, 5051, 5052, 4160
4409, 4932, 5054, 4158, 1963
4410, 5054, 5051, 2433, 4158
4411, 5053, 2662, 5051, 5054
4412, 2632, 5053, 5054, 4932
4413, 4089, 5056, 4930, 1882
4414, 5056, 5053, 2632, 4930
4415, 5055, 2662, 5053, 5056
4416, 2414, 5055, 5056, 4089
4417, 5057, 5058, 4087, 1870
4418, 5058, 5055, 2414, 4087
4419, 5050, 2662, 5055, 5058
4420, 2661, 5050, 5058, 5057
4421, 4853, 5062, 5059, 1828
4422, 5062, 5060, 2663, 5059
4423, 5061, 2664, 5060, 5062
4424, 2618, 5061, 5062, 4853
4425, 4129, 5064, 4863, 1838
4426, 5064, 5061, 2618, 4863
4427, 5063, 2664, 5061, 5064
4428, 2427, 5063, 5064, 4129
4429, 451, 5066, 4139, 34
4430, 5066, 5063, 2427, 4139
4431, 5065, 2664, 5063, 5066
4432, 450, 5065, 5066, 451
4433, 5067, 5068, 449, 448
4434, 5068, 5065, 450, 449
4435, 5060, 2664, 5065, 5068
4436, 2663, 5060, 5068, 5067
4437, 447, 5071, 5067, 448
4438, 5071, 5069, 2663, 5067
4439, 5070, 2665, 5069, 5071
4440, 446, 5070, 5071, 447
4441, 3944, 5073, 445, 444
4442, 5073, 5070, 446, 445
4443, 5072, 2665, 5070, 5073
4444, 2376, 5072, 5073, 3944
4445, 3048, 5075, 3942, 1835
4446, 5075, 5072, 2376, 3942
4447, 5074, 2665, 5072, 5075
4448, 2096, 5074, 5075, 3048
4449, 5059, 5076, 3046, 1828
4450, 5076, 5074, 2096, 3046
4451, 5069, 2665, 5074, 5076
4452, 2663, 5069, 5076, 5059
4453, 4070, 5079, 4049, 1975
4454, 5079, 5077, 2404, 4049
4455, 5078, 2667, 5077, 5079
4456, 2409, 5078, 5079, 4070
4457, 5081, 5082, 4068, 2021
4458, 5082, 5078, 2409, 4068
4459, 5080, 2667, 5078, 5082
4460, 2666, 5080, 5082, 5081
4461, 3588, 5085, 5083, 2027
4462, 5085, 5080, 2666, 5083
4463, 5084, 2667, 5080, 5085
4464, 2273, 5084, 5085, 3588
4465, 4051, 5086, 3586, 2002
4466, 5086, 5084, 2273, 3586
4467, 5077, 2667, 5084, 5086
4468, 2404, 5077, 5086, 4051
4469, 4155, 5089, 4934, 1963
4470, 5089, 5087, 2633, 4934
4471, 5088, 2668, 5087, 5089
4472, 2435, 5088, 5089, 4155
4473, 3858, 5091, 4167, 2018
4474, 5091, 5088, 2435, 4167
4475, 5090, 2668, 5088, 5091
4476, 2351, 5090, 5091, 3858
4477, 5025, 5093, 3856, 1985
4478, 5093, 5090, 2351, 3856
4479, 5092, 2668, 5090, 5093
4480, 2654, 5092, 5093, 5025
4481, 4936, 5094, 5023, 1952
4482, 5094, 5092, 2654, 5023
4483, 5087, 2668, 5092, 5094
4484, 2633, 5087, 5094, 4936
4485, 5097, 5098, 300, 7
4486, 5098, 5095, 301, 300
4487, 5096, 2671, 5095, 5098
4488, 2669, 5096, 5098, 5097
4489, 4756, 5101, 5099, 1819
4490, 5101, 5096, 2669, 5099
4491, 5100, 2671, 5096, 5101
4492, 2592, 5100, 5101, 4756
4493, 5103, 5104, 4754, 1891
4494, 5104, 5100, 2592, 4754
4495, 5102, 2671, 5100, 5104
4496, 2670, 5102, 5104, 5103
4497, 302, 5106, 5105, 303
4498, 5106, 5102, 2670, 5105
4499, 5095, 2671, 5102, 5106
4500, 301, 5095, 5106, 302
4501, 5021, 5109, 4937, 1952
4502, 5109, 5107, 2634, 4937
4503, 5108, 2673, 5107, 5109
4504, 2653, 5108, 5109, 5021
4505, 5111, 5112, 5019, 1987
4506, 5112, 5108, 2653, 5019
4507, 5110, 2673, 5108, 5112
4508, 2672, 5110, 5112, 5111
4509, 3799, 5115, 5113, 1917
4510, 5115, 5110, 2672, 5113
4511, 5114, 2673, 5110, 5115
4512, 2338, 5114, 5115, 3799
4513, 4925, 5116, 3811, 1927
4514, 5116, 5114, 2338, 3811
4515, 5107, 2673, 5114, 5116
4516, 2634, 5107, 5116, 4925
4517, 5119, 5120, 3195, 2067
4518, 5120, 5117, 2145, 3195
4519, 5118, 2676, 5117, 5120
4520, 2674, 5118, 5120, 5119
4521, 3314, 5123, 5121, 2069
4522, 5123, 5118, 2674, 5121
4523, 5122, 2676, 5118, 5123
4524, 2184, 5122, 5123, 3314
4525, 5125, 5126, 3312, 2055
4526, 5126, 5122, 2184, 3312
4527, 5124, 2676, 5122, 5126
4528, 2675, 5124, 5126, 5125
4529, 3185, 5128, 5127, 2031
4530, 5128, 5124, 2675, 5127
4531, 5117, 2676, 5124, 5128
4532, 2145, 5117, 5128, 3185
4533, 5131, 5132, 3231, 1902
4534, 5132, 5129, 2157, 3231
4535, 5130, 2678, 5129, 5132
4536, 2677, 5130, 5132, 5131
4537, 4905, 5135, 5133, 1833
4538, 5135, 5130, 2677, 5133
4539, 5134, 2678, 5130, 5135
4540, 2629, 5134, 5135, 4905
4541, 124, 5137, 4915, 123
4542, 5137, 5134, 2629, 4915
4543, 5136, 2678, 5134, 5137
4544, 125, 5136, 5137, 124
4545, 3221, 5138, 126, 127
4546, 5138, 5136, 125, 126
4547, 5129, 2678, 5136, 5138
4548, 2157, 5129, 5138, 3221
4549, 3368, 5142, 5139, 2050
4550, 5142, 5140, 2680, 5139
4551, 5141, 2681, 5140, 5142
4552, 2201, 5141, 5142, 3368
4553, 4325, 5144, 3366, 2006
4554, 5144, 5141, 2201, 3366
4555, 5143, 2681, 5141, 5144
4556, 2478, 5143, 5144, 4325
4557, 5146, 5147, 4323, 2047
4558, 5147, 5143, 2478, 4323
4559, 5145, 2681, 5143, 5147
4560, 2679, 5145, 5147, 5146
4561, 5149, 5150, 5148, 2061
4562, 5150, 5145, 2679, 5148
4563, 5140, 2681, 5145, 5150
4564, 2680, 5140, 5150, 5149
4565, 4691, 5154, 5151, 2024
4566, 5154, 5152, 2683, 5151
4567, 5153, 2684, 5152, 5154
4568, 2575, 5153, 5154, 4691
4569, 4797, 5156, 4689, 1997
4570, 5156, 5153, 2575, 4689
4571, 5155, 2684, 5153, 5156
4572, 2604, 5155, 5156, 4797
4573, 5158, 5159, 4805, 1960
4574, 5159, 5155, 2604, 4805
4575, 5157, 2684, 5155, 5159
4576, 2682, 5157, 5159, 5158
4577, 5161, 5162, 5160, 2005
4578, 5162, 5157, 2682, 5160
4579, 5152, 2684, 5157, 5162
4580, 2683, 5152, 5162, 5161
4581, 5165, 5166, 3473, 1971
4582, 5166, 5163, 2236, 3473
4583, 5164, 2686, 5163, 5166
4584, 2685, 5164, 5166, 5165
4585, 3332, 5169, 5167, 1991
4586, 5169, 5164, 2685, 5167
4587, 5168, 2686, 5164, 5169
4588, 2190, 5168, 5169, 3332
4589, 4213, 5171, 3330, 1957
4590, 5171, 5168, 2190, 3330
4591, 5170, 2686, 5168, 5171
4592, 2448, 5170, 5171, 4213
4593, 3463, 5172, 4211, 1938
4594, 5172, 5170, 2448, 4211
4595, 5163, 2686, 5170, 5172
4596, 2236, 5163, 5172, 3463
4597, 5175, 5176, 4518, 2048
4598, 5176, 5173, 2532, 4518
4599, 5174, 2688, 5173, 5176
4600, 2687, 5174, 5176, 5175
4601, 4573, 5179, 5177, 2023
4602, 5179, 5174, 2687, 5177
4603, 5178, 2688, 5174, 5179
4604, 2545, 5178, 5179, 4573
4605, 3564, 5181, 4571, 2049
4606, 5181, 5178, 2545, 4571
4607, 5180, 2688, 5178, 5181
4608, 2265, 5180, 5181, 3564
4609, 4520, 5182, 3562, 2008
4610, 5182, 5180, 2265, 3562
4611, 5173, 2688, 5180, 5182
4612, 2532, 5173, 5182, 4520
4613, 4321, 5186, 5183, 2047
4614, 5186, 5184, 2690, 5183
4615, 5185, 2691, 5184, 5186
4616, 2477, 5185, 5186, 4321
4617, 5188, 5189, 4319, 2015
4618, 5189, 5185, 2477, 4319
4619, 5187, 2691, 5185, 5189
4620, 2689, 5187, 5189, 5188
4621, 3310, 5192, 5190, 2055
4622, 5192, 5187, 2689, 5190
4623, 5191, 2691, 5187, 5192
4624, 2183, 5191, 5192, 3310
4625, 5193, 5194, 3308, 2060
4626, 5194, 5191, 2183, 3308
4627, 5184, 2691, 5191, 5194
4628, 2690, 5184, 5194, 5193
4629, 4263, 5197, 4947, 1845
4630, 5197, 5195, 2636, 4947
4631, 5196, 2692, 5195, 5197
4632, 2461, 5196, 5197, 4263
4633, 306, 5199, 4261, 6
4634, 5199, 5196, 2461, 4261
4635, 5198, 2692, 5196, 5199
4636, 305, 5198, 5199, 306
4637, 5105, 5201, 304, 303
4638, 5201, 5198, 305, 304
4639, 5200, 2692, 5198, 5201
4640, 2670, 5200, 5201, 5105
4641, 4939, 5202, 5103, 1891
4642, 5202, 5200, 2670, 5103
4643, 5195, 2692, 5200, 5202
4644, 2636, 5195, 5202, 4939
4645, 5205, 5206, 4496, 1982
4646, 5206, 5203, 2526, 4496
4647, 5204, 2696, 5203, 5206
4648, 2693, 5204, 5206, 5205
4649, 5209, 5210, 5207, 2039
4650, 5210, 5204, 2693, 5207
4651, 5208, 2696, 5204, 5210
4652, 2694, 5208, 5210, 5209
4653, 5213, 5214, 5211, 2045
4654, 5214, 5208, 2694, 5211
4655, 5212, 2696, 5208, 5214
4656, 2695, 5212, 5214, 5213
4657, 4498, 5216, 5215, 2026
4658, 5216, 5212, 2695, 5215
4659, 5203, 2696, 5212, 5216
4660, 2526, 5203, 5216, 4498
4661, 4310, 5220, 5217, 2070
4662, 5220, 5218, 2698, 5217
4663, 5219, 2699, 5218, 5220
4664, 2473, 5219, 5220, 4310
4665, 5222, 5223, 4308, 2072
4666, 5223, 5219, 2473, 4308
4667, 5221, 2699, 5219, 5223
4668, 2697, 5221, 5223, 5222
4669, 4244, 5226, 5224, 2051
4670, 5226, 5221, 2697, 5224
4671, 5225, 2699, 5221, 5226
4672, 2456, 5225, 5226, 4244
4673, 5227, 5228, 4242, 2041
4674, 5228, 5225, 2456, 4242
4675, 5218, 2699, 5225, 5228
4676, 2698, 5218, 5228, 5227
4677, 5232, 5233, 5229, 1893
4678, 5233, 5230, 2702, 5229
4679, 5231, 2703, 5230, 5233
4680, 2700, 5231, 5233, 5232
4681, 3060, 5236, 5234, 1942
4682, 5236, 5231, 2700, 5234
4683, 5235, 2703, 5231, 5236
4684, 2100, 5235, 5236, 3060
4685, 5238, 5239, 3058, 1915
4686, 5239, 5235, 2100, 3058
4687, 5237, 2703, 5235, 5239
4688, 2701, 5237, 5239, 5238
4689, 5241, 5242, 5240, 1888
4690, 5242, 5237, 2701, 5240
4691, 5230, 2703, 5237, 5242
4692, 2702, 5230, 5242, 5241
4693, 5246, 5247, 5243, 1861
4694, 5247, 5244, 2706, 5243
4695, 5245, 2707, 5244, 5247
4696, 2704, 5245, 5247, 5246
4697, 4785, 5250, 5248, 1846
4698, 5250, 5245, 2704, 5248
4699, 5249, 2707, 5245, 5250
4700, 2602, 5249, 5250, 4785
4701, 5252, 5253, 4795, 1866
4702, 5253, 5249, 2602, 4795
4703, 5251, 2707, 5249, 5253
4704, 2705, 5251, 5253, 5252
4705, 5255, 5256, 5254, 1907
4706, 5256, 5251, 2705, 5254
4707, 5244, 2707, 5251, 5256
4708, 2706, 5244, 5256, 5255
4709, 4744, 5259, 3757, 2014
4710, 5259, 5257, 2323, 3757
4711, 5258, 2709, 5257, 5259
4712, 2588, 5258, 5259, 4744
4713, 4591, 5261, 4742, 1996
4714, 5261, 5258, 2588, 4742
4715, 5260, 2709, 5258, 5261
4716, 2550, 5260, 5261, 4591
4717, 5263, 5264, 4589, 1956
4718, 5264, 5260, 2550, 4589
4719, 5262, 2709, 5260, 5264
4720, 2708, 5262, 5264, 5263
4721, 3743, 5266, 5265, 1995
4722, 5266, 5262, 2708, 5265
4723, 5257, 2709, 5262, 5266
4724, 2323, 5257, 5266, 3743
4725, 5269, 5270, 3291, 2062
4726, 5270, 5267, 2177, 3291
4727, 5268, 2712, 5267, 5270
4728, 2710, 5268, 5270, 5269
4729, 5217, 5273, 5271, 2070
4730, 5273, 5268, 2710, 5271
4731, 5272, 2712, 5268, 5273
4732, 2698, 5272, 5273, 5217
4733, 5275, 5276, 5227, 2041
4734, 5276, 5272, 2698, 5227
4735, 5274, 2712, 5272, 5276
4736, 2711, 5274, 5276, 5275
4737, 3281, 5278, 5277, 2044
4738, 5278, 5274, 2711, 5277
4739, 5267, 2712, 5274, 5278
4740, 2177, 5267, 5278, 3281
4741, 5282, 5283, 5279, 1906
4742, 5283, 5280, 2715, 5279
4743, 5281, 2716, 5280, 5283
4744, 2713, 5281, 5283, 5282
4745, 4362, 5286, 5284, 1910
4746, 5286, 5281, 2713, 5284
4747, 5285, 2716, 5281, 5286
4748, 2488, 5285, 5286, 4362
4749, 5288, 5289, 4360, 1959
4750, 5289, 5285, 2488, 4360
4751, 5287, 2716, 5285, 5289
4752, 2714, 5287, 5289, 5288
4753, 5291, 5292, 5290, 1867
4754, 5292, 5287, 2714, 5290
4755, 5280, 2716, 5287, 5292
4756, 2715, 5280, 5292, 5291
4757, 5295, 5296, 3589, 2027
4758, 5296, 5293, 2274, 3589
4759, 5294, 2718, 5293, 5296
4760, 2717, 5294, 5296, 5295
4761, 3664, 5299, 5297, 1998
4762, 5299, 5294, 2717, 5297
4763, 5298, 2718, 5294, 5299
4764, 2296, 5298, 5299, 3664
4765, 4015, 5301, 3662, 1949
4766, 5301, 5298, 2296, 3662
4767, 5300, 2718, 5298, 5301
4768, 2398, 5300, 5301, 4015
4769, 3579, 5302, 4027, 1940
4770, 5302, 5300, 2398, 4027
4771, 5293, 2718, 5300, 5302
4772, 2274, 5293, 5302, 3579
4773, 4235, 5305, 4734, 2009
4774, 5305, 5303, 2586, 4734
4775, 5304, 2720, 5303, 5305
4776, 2457, 5304, 5305, 4235
4777, 5307, 5308, 4247, 2031
4778, 5308, 5304, 2457, 4247
4779, 5306, 2720, 5304, 5308
4780, 2719, 5306, 5308, 5307
4781, 4178, 5311, 5309, 1978
4782, 5311, 5306, 2719, 5309
4783, 5310, 2720, 5306, 5311
4784, 2438, 5310, 5311, 4178
4785, 4736, 5312, 4176, 1947
4786, 5312, 5310, 2438, 4176
4787, 5303, 2720, 5310, 5312
4788, 2586, 5303, 5312, 4736
4789, 5316, 5317, 5313, 1876
4790, 5317, 5314, 2722, 5313
4791, 5315, 2723, 5314, 5317
4792, 2721, 5315, 5317, 5316
4793, 3480, 5320, 5318, 1939
4794, 5320, 5315, 2721, 5318
4795, 5319, 2723, 5315, 5320
4796, 2238, 5319, 5320, 3480
4797, 5284, 5322, 3478, 1910
4798, 5322, 5319, 2238, 3478
4799, 5321, 2723, 5319, 5322
4800, 2713, 5321, 5322, 5284
4801, 5323, 5324, 5282, 1906
4802, 5324, 5321, 2713, 5282
4803, 5314, 2723, 5321, 5324
4804, 2722, 5314, 5324, 5323
4805, 5031, 5327, 4657, 1912
4806, 5327, 5325, 2566, 4657
4807, 5326, 2725, 5325, 5327
4808, 2656, 5326, 5327, 5031
4809, 5329, 5330, 5029, 1936
4810, 5330, 5326, 2656, 5029
4811, 5328, 2725, 5326, 5330
4812, 2724, 5328, 5330, 5329
4813, 5254, 5333, 5331, 1907
4814, 5333, 5328, 2724, 5331
4815, 5332, 2725, 5328, 5333
4816, 2705, 5332, 5333, 5254
4817, 4647, 5334, 5252, 1866
4818, 5334, 5332, 2705, 5252
4819, 5325, 2725, 5332, 5334
4820, 2566, 5325, 5334, 4647
4821, 4760, 5337, 5291, 1867
4822, 5337, 5335, 2715, 5291
4823, 5336, 2728, 5335, 5337
4824, 2593, 5336, 5337, 4760
4825, 5339, 5340, 4758, 1819
4826, 5340, 5336, 2593, 4758
4827, 5338, 2728, 5336, 5340
4828, 2726, 5338, 5340, 5339
4829, 5343, 5344, 5341, 1860
4830, 5344, 5338, 2726, 5341
4831, 5342, 2728, 5338, 5344
4832, 2727, 5342, 5344, 5343
4833, 5279, 5346, 5345, 1906
4834, 5346, 5342, 2727, 5345
4835, 5335, 2728, 5342, 5346
4836, 2715, 5335, 5346, 5279
4837, 5349, 5350, 3417, 1980
4838, 5350, 5347, 2218, 3417
4839, 5348, 2731, 5347, 5350
4840, 2729, 5348, 5350, 5349
4841, 5353, 5354, 5351, 2010
4842, 5354, 5348, 2729, 5351
4843, 5352, 2731, 5348, 5354
4844, 2730, 5352, 5354, 5353
4845, 5167, 5357, 5355, 1991
4846, 5357, 5352, 2730, 5355
4847, 5356, 2731, 5352, 5357
4848, 2685, 5356, 5357, 5167
4849, 3407, 5358, 5165, 1971
4850, 5358, 5356, 2685, 5165
4851, 5347, 2731, 5356, 5358
4852, 2218, 5347, 5358, 3407
4853, 3052, 5362, 5359, 1926
4854, 5362, 5360, 2734, 5359
4855, 5361, 2735, 5360, 5362
4856, 2097, 5361, 5362, 3052
4857, 5364, 5365, 3050, 1835
4858, 5365, 5361, 2097, 3050
4859, 5363, 2735, 5361, 5365
4860, 2732, 5363, 5365, 5364
4861, 5368, 5369, 5366, 1879
4862, 5369, 5363, 2732, 5366
4863, 5367, 2735, 5363, 5369
4864, 2733, 5367, 5369, 5368
4865, 5371, 5372, 5370, 1945
4866, 5372, 5367, 2733, 5370
4867, 5360, 2735, 5367, 5372
4868, 2734, 5360, 5372, 5371
4869, 3468, 5375, 5329, 1936
4870, 5375, 5373, 2724, 5329
4871, 5374, 2737, 5373, 5375
4872, 2234, 5374, 5375, 3468
4873, 3518, 5377, 3466, 1938
4874, 5377, 5374, 2234, 3466
4875, 5376, 2737, 5374, 5377
4876, 2250, 5376, 5377, 3518
4877, 5379, 5380, 3516, 1877
4878, 5380, 5376, 2250, 3516
4879, 5378, 2737, 5376, 5380
4880, 2736, 5378, 5380, 5379
4881, 5331, 5382, 5381, 1907
4882, 5382, 5378, 2736, 5381
4883, 5373, 2737, 5378, 5382
4884, 2724, 5373, 5382, 5331
4885, 4595, 5385, 3016, 1919
4886, 5385, 5383, 2086, 3016
4887, 5384, 2738, 5383, 5385
4888, 2551, 5384, 5385, 4595
4889, 4740, 5387, 4593, 1996
4890, 5387, 5384, 2551, 4593
4891, 5386, 2738, 5384, 5387
4892, 2587, 5386, 5387, 4740
4893, 4174, 5389, 4738, 1947
4894, 5389, 5386, 2587, 4738
4895, 5388, 2738, 5386, 5389
4896, 2437, 5388, 5389, 4174
4897, 3018, 5390, 4172, 1941
4898, 5390, 5388, 2437, 4172
4899, 5383, 2738, 5388, 5390
4900, 2086, 5383, 5390, 3018
4901, 4839, 5393, 4276, 2007
4902, 5393, 5391, 2464, 4276
4903, 5392, 2740, 5391, 5393
4904, 2612, 5392, 5393, 4839
4905, 4353, 5395, 4837, 1981
4906, 5395, 5392, 2612, 4837
4907, 5394, 2740, 5392, 5395
4908, 2489, 5394, 5395, 4353
4909, 5397, 5398, 4365, 1951
4910, 5398, 5394, 2489, 4365
4911, 5396, 2740, 5394, 5398
4912, 2739, 5396, 5398, 5397
4913, 4278, 5400, 5399, 2028
4914, 5400, 5396, 2739, 5399
4915, 5391, 2740, 5396, 5400
4916, 2464, 5391, 5400, 4278
4917, 5404, 5405, 5401, 1847
4918, 5405, 5402, 2743, 5401
4919, 5403, 2744, 5402, 5405
4920, 2741, 5403, 5405, 5404
4921, 5408, 5409, 5406, 1836
4922, 5409, 5403, 2741, 5406
4923, 5407, 2744, 5403, 5409
4924, 2742, 5407, 5409, 5408
4925, 4678, 5412, 5410, 1887
4926, 5412, 5407, 2742, 5410
4927, 5411, 2744, 5407, 5412
4928, 2572, 5411, 5412, 4678
4929, 5413, 5414, 4676, 1905
4930, 5414, 5411, 2572, 4676
4931, 5402, 2744, 5411, 5414
4932, 2743, 5402, 5414, 5413
4933, 5000, 5417, 3646, 2054
4934, 5417, 5415, 2291, 3646
4935, 5416, 2746, 5415, 5417
4936, 2648, 5416, 5417, 5000
4937, 5121, 5419, 4998, 2069
4938, 5419, 5416, 2648, 4998
4939, 5418, 2746, 5416, 5419
4940, 2674, 5418, 5419, 5121
4941, 5421, 5422, 5119, 2067
4942, 5422, 5418, 2674, 5119
4943, 5420, 2746, 5418, 5422
4944, 2745, 5420, 5422, 5421
4945, 3648, 5424, 5423, 2076
4946, 5424, 5420, 2745, 5423
4947, 5415, 2746, 5420, 5424
4948, 2291, 5415, 5424, 3648
4949, 3851, 5427, 4722, 1816
4950, 5427, 5425, 2582, 4722
4951, 5426, 2748, 5425, 5427
4952, 2349, 5426, 5427, 3851
4953, 3804, 5429, 3849, 1885
4954, 5429, 5426, 2349, 3849
4955, 5428, 2748, 5426, 5429
4956, 2336, 5428, 5429, 3804
4957, 5431, 5432, 3802, 1917
4958, 5432, 5428, 2336, 3802
4959, 5430, 2748, 5428, 5432
4960, 2747, 5430, 5432, 5431
4961, 4724, 5434, 5433, 1962
4962, 5434, 5430, 2747, 5433
4963, 5425, 2748, 5430, 5434
4964, 2582, 5425, 5434, 4724
4965, 5438, 5439, 5435, 1818
4966, 5439, 5436, 2750, 5435
4967, 5437, 2751, 5436, 5439
4968, 2749, 5437, 5439, 5438
4969, 5243, 5442, 5440, 1861
4970, 5442, 5437, 2749, 5440
4971, 5441, 2751, 5437, 5442
4972, 2706, 5441, 5442, 5243
4973, 5381, 5444, 5255, 1907
4974, 5444, 5441, 2706, 5255
4975, 5443, 2751, 5441, 5444
4976, 2736, 5443, 5444, 5381
4977, 5445, 5446, 5379, 1877
4978, 5446, 5443, 2736, 5379
4979, 5436, 2751, 5443, 5446
4980, 2750, 5436, 5446, 5445
4981, 3766, 5449, 3677, 2019
4982, 5449, 5447, 2301, 3677
4983, 5448, 2752, 5447, 5449
4984, 2325, 5448, 5449, 3766
4985, 4513, 5451, 3764, 2038
4986, 5451, 5448, 2325, 3764
4987, 5450, 2752, 5448, 5451
4988, 2530, 5450, 5451, 4513
4989, 5207, 5453, 4511, 2039
4990, 5453, 5450, 2530, 4511
4991, 5452, 2752, 5450, 5453
4992, 2693, 5452, 5453, 5207
4993, 3679, 5454, 5205, 1982
4994, 5454, 5452, 2693, 5205
4995, 5447, 2752, 5452, 5454
4996, 2301, 5447, 5454, 3679
4997, 5359, 5457, 4858, 1926
4998, 5457, 5455, 2617, 4858
4999, 5456, 2753, 5455, 5457
5000, 2734, 5456, 5457, 5359
5001, 4670, 5459, 5371, 1945
5002, 5459, 5456, 2734, 5371
5003, 5458, 2753, 5456, 5459
5004, 2569, 5458, 5459, 4670
5005, 4460, 5461, 4668, 1967
5006, 5461, 5458, 2569, 4668
5007, 5460, 2753, 5458, 5461
5008, 2515, 5460, 5461, 4460
5009, 4860, 5462, 4458, 1874
5010, 5462, 5460, 2515, 4458
5011, 5455, 2753, 5460, 5462
5012, 2617, 5455, 5462, 4860
5013, 5345, 5465, 5323, 1906
5014, 5465, 5463, 2722, 5323
5015, 5464, 2756, 5463, 5465
5016, 2727, 5464, 5465, 5345
5017, 5467, 5468, 5343, 1860
5018, 5468, 5464, 2727, 5343
5019, 5466, 2756, 5464, 5468
5020, 2754, 5466, 5468, 5467
5021, 5471, 5472, 5469, 1831
5022, 5472, 5466, 2754, 5469
5023, 5470, 2756, 5466, 5472
5024, 2755, 5470, 5472, 5471
5025, 5313, 5474, 5473, 1876
5026, 5474, 5470, 2755, 5473
5027, 5463, 2756, 5470, 5474
5028, 2722, 5463, 5474, 5313
5029, 4227, 5477, 4729, 1918
5030, 5477, 5475, 2584, 4729
5031, 5476, 2757, 5475, 5477
5032, 2452, 5476, 5477, 4227
5033, 4367, 5479, 4225, 1869
5034, 5479, 5476, 2452, 4225
5035, 5478, 2757, 5476, 5479
5036, 2492, 5478, 5479, 4367
5037, 4037, 5481, 4377, 1826
5038, 5481, 5478, 2492, 4377
5039, 5480, 2757, 5478, 5481
5040, 2400, 5480, 5481, 4037
5041, 4717, 5482, 4035, 1884
5042, 5482, 5480, 2400, 4035
5043, 5475, 2757, 5480, 5482
5044, 2584, 5475, 5482, 4717
5045, 5366, 5485, 4969, 1879
5046, 5485, 5483, 2641, 4969
5047, 5484, 2758, 5483, 5485
5048, 2732, 5484, 5485, 5366
5049, 3939, 5487, 5364, 1835
5050, 5487, 5484, 2732, 5364
5051, 5486, 2758, 5484, 5487
5052, 2377, 5486, 5487, 3939
5053, 115, 5489, 3949, 116
5054, 5489, 5486, 2377, 3949
5055, 5488, 2758, 5486, 5489
5056, 114, 5488, 5489, 115
5057, 4959, 5490, 113, 112
5058, 5490, 5488, 114, 113
5059, 5483, 2758, 5488, 5490
5060, 2641, 5483, 5490, 4959
5061, 3492, 5493, 4683, 1924
5062, 5493, 5491, 2573, 4683
5063, 5492, 2761, 5491, 5493
5064, 2242, 5492, 5493, 3492
5065, 5495, 5496, 3490, 1973
5066, 5496, 5492, 2242, 3490
5067, 5494, 2761, 5492, 5496
5068, 2759, 5494, 5496, 5495
5069, 5499, 5500, 5497, 1863
5070, 5500, 5494, 2759, 5497
5071, 5498, 2761, 5494, 5500
5072, 2760, 5498, 5500, 5499
5073, 4673, 5502, 5501, 1905
5074, 5502, 5498, 2760, 5501
5075, 5491, 2761, 5498, 5502
5076, 2573, 5491, 5502, 4673
5077, 5505, 5506, 307, 8
5078, 5506, 5503, 308, 307
5079, 5504, 2764, 5503, 5506
5080, 2762, 5504, 5506, 5505
5081, 5469, 5509, 5507, 1831
5082, 5509, 5504, 2762, 5507
5083, 5508, 2764, 5504, 5509
5084, 2754, 5508, 5509, 5469
5085, 5511, 5512, 5467, 1860
5086, 5512, 5508, 2754, 5467
5087, 5510, 2764, 5508, 5512
5088, 2763, 5510, 5512, 5511
5089, 309, 5514, 5513, 310
5090, 5514, 5510, 2763, 5513
5091, 5503, 2764, 5510, 5514
5092, 308, 5503, 5514, 309
5093, 5513, 5517, 311, 310
5094, 5517, 5515, 312, 311
5095, 5516, 2765, 5515, 5517
5096, 2763, 5516, 5517, 5513
5097, 5341, 5519, 5511, 1860
5098, 5519, 5516, 2763, 5511
5099, 5518, 2765, 5516, 5519
5100, 2726, 5518, 5519, 5341
5101, 5099, 5521, 5339, 1819
5102, 5521, 5518, 2726, 5339
5103, 5520, 2765, 5518, 5521
5104, 2669, 5520, 5521, 5099
5105, 313, 5522, 5097, 7
5106, 5522, 5520, 2669, 5097
5107, 5515, 2765, 5520, 5522
5108, 312, 5515, 5522, 313
5109, 5248, 5525, 4899, 1846
5110, 5525, 5523, 2626, 4899
5111, 5524, 2767, 5523, 5525
5112, 2704, 5524, 5525, 5248
5113, 5527, 5528, 5246, 1861
5114, 5528, 5524, 2704, 5246
5115, 5526, 2767, 5524, 5528
5116, 2766, 5526, 5528, 5527
5117, 422, 5531, 5529, 423
5118, 5531, 5526, 2766, 5529
5119, 5530, 2767, 5526, 5531
5120, 421, 5530, 5531, 422
5121, 4901, 5532, 420, 32
5122, 5532, 5530, 421, 420
5123, 5523, 2767, 5530, 5532
5124, 2626, 5523, 5532, 4901
5125, 5440, 5535, 5527, 1861
5126, 5535, 5533, 2766, 5527
5127, 5534, 2769, 5533, 5535
5128, 2749, 5534, 5535, 5440
5129, 5537, 5538, 5438, 1818
5130, 5538, 5534, 2749, 5438
5131, 5536, 2769, 5534, 5538
5132, 2768, 5536, 5538, 5537
5133, 426, 5541, 5539, 31
5134, 5541, 5536, 2768, 5539
5135, 5540, 2769, 5536, 5541
5136, 425, 5540, 5541, 426
5137, 5529, 5542, 424, 423
5138, 5542, 5540, 425, 424
5139, 5533, 2769, 5540, 5542
5140, 2766, 5533, 5542, 5529
5141, 3756, 5545, 4745, 2014
5142, 5545, 5543, 2589, 4745
5143, 5544, 2770, 5543, 5545
5144, 2322, 5544, 5545, 3756
5145, 5277, 5547, 3754, 2044
5146, 5547, 5544, 2322, 3754
5147, 5546, 2770, 5544, 5547
5148, 2711, 5546, 5547, 5277
5149, 4240, 5549, 5275, 2041
5150, 5549, 5546, 2711, 5275
5151, 5548, 2770, 5546, 5549
5152, 2455, 5548, 5549, 4240
5153, 4731, 5550, 4238, 2009
5154, 5550, 5548, 2455, 4238
5155, 5543, 2770, 5548, 5550
5156, 2589, 5543, 5550, 4731
5157, 4358, 5554, 5551, 1959
5158, 5554, 5552, 2771, 5551
5159, 5553, 2772, 5552, 5554
5160, 2487, 5553, 5554, 4358
5161, 4835, 5556, 4356, 1981
5162, 5556, 5553, 2487, 4356
5163, 5555, 2772, 5553, 5556
5164, 2611, 5555, 5556, 4835
5165, 4776, 5558, 4833, 2017
5166, 5558, 5555, 2611, 4833
5167, 5557, 2772, 5555, 5558
5168, 2597, 5557, 5558, 4776
5169, 5559, 5560, 4774, 2001
5170, 5560, 5557, 2597, 4774
5171, 5552, 2772, 5557, 5560
5172, 2771, 5552, 5560, 5559
5173, 5183, 5563, 5146, 2047
5174, 5563, 5561, 2679, 5146
5175, 5562, 2774, 5561, 5563
5176, 2690, 5562, 5563, 5183
5177, 5042, 5565, 5193, 2060
5178, 5565, 5562, 2690, 5193
5179, 5564, 2774, 5562, 5565
5180, 2658, 5564, 5565, 5042
5181, 5567, 5568, 5040, 2037
5182, 5568, 5564, 2658, 5040
5183, 5566, 2774, 5564, 5568
5184, 2773, 5566, 5568, 5567
5185, 5148, 5570, 5569, 2061
5186, 5570, 5566, 2773, 5569
5187, 5561, 2774, 5566, 5570
5188, 2679, 5561, 5570, 5148
5189, 5133, 5574, 5571, 1833
5190, 5574, 5572, 2776, 5571
5191, 5573, 2777, 5572, 5574
5192, 2677, 5573, 5574, 5133
5193, 5576, 5577, 5131, 1902
5194, 5577, 5573, 2677, 5131
5195, 5575, 2777, 5573, 5577
5196, 2775, 5575, 5577, 5576
5197, 3206, 5580, 5578, 1944
5198, 5580, 5575, 2775, 5578
5199, 5579, 2777, 5575, 5580
5200, 2148, 5579, 5580, 3206
5201, 5581, 5582, 3204, 1903
5202, 5582, 5579, 2148, 3204
5203, 5572, 2777, 5579, 5582
5204, 2776, 5572, 5582, 5581
5205, 5585, 5586, 3553, 1892
5206, 5586, 5583, 2262, 3553
5207, 5584, 2780, 5583, 5586
5208, 2778, 5584, 5586, 5585
5209, 5589, 5590, 5587, 1913
5210, 5590, 5584, 2778, 5587
5211, 5588, 2780, 5584, 5590
5212, 2779, 5588, 5590, 5589
5213, 4953, 5593, 5591, 1865
5214, 5593, 5588, 2779, 5591
5215, 5592, 2780, 5588, 5593
5216, 2638, 5592, 5593, 4953
5217, 3543, 5594, 4951, 1820
5218, 5594, 5592, 2638, 4951
5219, 5583, 2780, 5592, 5594
5220, 2262, 5583, 5594, 3543
5221, 5597, 5598, 3075, 1852
5222, 5598, 5595, 2105, 3075
5223, 5596, 2783, 5595, 5598
5224, 2781, 5596, 5598, 5597
5225, 5601, 5602, 5599, 1864
5226, 5602, 5596, 2781, 5599
5227, 5600, 2783, 5596, 5602
5228, 2782, 5600, 5602, 5601
5229, 3356, 5605, 5603, 1817
5230, 5605, 5600, 2782, 5603
5231, 5604, 2783, 5600, 5605
5232, 2197, 5604, 5605, 3356
5233, 3067, 5606, 3354, 26
5234, 5606, 5604, 2197, 3354
5235, 5595, 2783, 5604, 5606
5236, 2105, 5595, 5606, 3067
5237, 3178, 5610, 5607, 1970
5238, 5610, 5608, 2785, 5607
5239, 5609, 2786, 5608, 5610
5240, 2139, 5609, 5610, 3178
5241, 5049, 5612, 3176, 1914
5242, 5612, 5609, 2139, 3176
5243, 5611, 2786, 5609, 5612
5244, 2661, 5611, 5612, 5049
5245, 5614, 5615, 5057, 1870
5246, 5615, 5611, 2661, 5057
5247, 5613, 2786, 5611, 5615
5248, 2784, 5613, 5615, 5614
5249, 5617, 5618, 5616, 1930
5250, 5618, 5613, 2784, 5616
5251, 5608, 2786, 5613, 5618
5252, 2785, 5608, 5618, 5617
5253, 3086, 5621, 4193, 1868
5254, 5621, 5619, 2443, 4193
5255, 5620, 2788, 5619, 5621
5256, 2108, 5620, 5621, 3086
5257, 5623, 5624, 3084, 1837
5258, 5624, 5620, 2108, 3084
5259, 5622, 2788, 5620, 5624
5260, 2787, 5622, 5624, 5623
5261, 3009, 5627, 5625, 1878
5262, 5627, 5622, 2787, 5625
5263, 5626, 2788, 5622, 5627
5264, 2087, 5626, 5627, 3009
5265, 4195, 5628, 3019, 1941
5266, 5628, 5626, 2087, 3019
5267, 5619, 2788, 5626, 5628
5268, 2443, 5619, 5628, 4195
5269, 5631, 5632, 4426, 1976
5270, 5632, 5629, 2506, 4426
5271, 5630, 2790, 5629, 5632
5272, 2789, 5630, 5632, 5631
5273, 5265, 5635, 5633, 1995
5274, 5635, 5630, 2789, 5633
5275, 5634, 2790, 5630, 5635
5276, 2708, 5634, 5635, 5265
5277, 3440, 5637, 5263, 1956
5278, 5637, 5634, 2708, 5263
5279, 5636, 2790, 5634, 5637
5280, 2225, 5636, 5637, 3440
5281, 4428, 5638, 3438, 1937
5282, 5638, 5636, 2225, 3438
5283, 5629, 2790, 5636, 5638
5284, 2506, 5629, 5638, 4428
5285, 5642, 5643, 5639, 2045
5286, 5643, 5640, 2794, 5639
5287, 5641, 2795, 5640, 5643
5288, 2791, 5641, 5643, 5642
5289, 5646, 5647, 5644, 2077
5290, 5647, 5641, 2791, 5644
5291, 5645, 2795, 5641, 5647
5292, 2792, 5645, 5647, 5646
5293, 5650, 5651, 5648, 2030
5294, 5651, 5645, 2792, 5648
5295, 5649, 2795, 5645, 5651
5296, 2793, 5649, 5651, 5650
5297, 5653, 5654, 5652, 2013
5298, 5654, 5649, 2793, 5652
5299, 5640, 2795, 5649, 5654
5300, 2794, 5640, 5654, 5653
5301, 5370, 5657, 4671, 1945
5302, 5657, 5655, 2570, 4671
5303, 5656, 2796, 5655, 5657
5304, 2733, 5656, 5657, 5370
5305, 4968, 5659, 5368, 1879
5306, 5659, 5656, 2733, 5368
5307, 5658, 2796, 5656, 5659
5308, 2640, 5658, 5659, 4968
5309, 4374, 5661, 4966, 1840
5310, 5661, 5658, 2640, 4966
5311, 5660, 2796, 5658, 5661
5312, 2491, 5660, 5661, 4374
5313, 4659, 5662, 4372, 1916
5314, 5662, 5660, 2491, 4372
5315, 5655, 2796, 5660, 5662
5316, 2570, 5655, 5662, 4659
5317, 5665, 5666, 4711, 2053
5318, 5666, 5663, 2580, 4711
5319, 5664, 2800, 5663, 5666
5320, 2797, 5664, 5666, 5665
5321, 5669, 5670, 5667, 2035
5322, 5670, 5664, 2797, 5667
5323, 5668, 2800, 5664, 5670
5324, 2798, 5668, 5670, 5669
5325, 5673, 5674, 5671, 2010
5326, 5674, 5668, 2798, 5671
5327, 5672, 2800, 5668, 5674
5328, 2799, 5672, 5674, 5673
5329, 4713, 5676, 5675, 2036
5330, 5676, 5672, 2799, 5675
5331, 5663, 2800, 5672, 5676
5332, 2580, 5663, 5676, 4713
5333, 5667, 5679, 3288, 2035
5334, 5679, 5677, 2176, 3288
5335, 5678, 2802, 5677, 5679
5336, 2797, 5678, 5679, 5667
5337, 4629, 5681, 5665, 2053
5338, 5681, 5678, 2797, 5665
5339, 5680, 2802, 5678, 5681
5340, 2559, 5680, 5681, 4629
5341, 5683, 5684, 4627, 2065
5342, 5684, 5680, 2559, 4627
5343, 5682, 2802, 5680, 5684
5344, 2801, 5682, 5684, 5683
5345, 3290, 5686, 5685, 2062
5346, 5686, 5682, 2801, 5685
5347, 5677, 2802, 5682, 5686
5348, 2176, 5677, 5686, 3290
5349, 5013, 5689, 3390, 1990
5350, 5689, 5687, 2209, 3390
5351, 5688, 2804, 5687, 5689
5352, 2651, 5688, 5689, 5013
5353, 3380, 5691, 5011, 2029
5354, 5691, 5688, 2651, 5011
5355, 5690, 2804, 5688, 5691
5356, 2205, 5690, 5691, 3380
5357, 5693, 5694, 3378, 1954
5358, 5694, 5690, 2205, 3378
5359, 5692, 2804, 5690, 5694
5360, 2803, 5692, 5694, 5693
5361, 3392, 5696, 5695, 2000
5362, 5696, 5692, 2803, 5695
5363, 5687, 2804, 5692, 5696
5364, 2209, 5687, 5696, 3392
5365, 5309, 5700, 5697, 1978
5366, 5700, 5698, 2805, 5697
5367, 5699, 2806, 5698, 5700
5368, 2719, 5699, 5700, 5309
5369, 5127, 5702, 5307, 2031
5370, 5702, 5699, 2719, 5307
5371, 5701, 2806, 5699, 5702
5372, 2675, 5701, 5702, 5127
5373, 5190, 5704, 5125, 2055
5374, 5704, 5701, 2675, 5125
5375, 5703, 2806, 5701, 5704
5376, 2689, 5703, 5704, 5190
5377, 5705, 5706, 5188, 2015
5378, 5706, 5703, 2689, 5188
5379, 5698, 2806, 5703, 5706
5380, 2805, 5698, 5706, 5705
5381, 5639, 5709, 5213, 2045
5382, 5709, 5707, 2695, 5213
5383, 5708, 2808, 5707, 5709
5384, 2794, 5708, 5709, 5639
5385, 5711, 5712, 5653, 2013
5386, 5712, 5708, 2794, 5653
5387, 5710, 2808, 5708, 5712
5388, 2807, 5710, 5712, 5711
5389, 3923, 5715, 5713, 1989
5390, 5715, 5710, 2807, 5713
5391, 5714, 2808, 5710, 5715
5392, 2370, 5714, 5715, 3923
5393, 5215, 5716, 3921, 2026
5394, 5716, 5714, 2370, 3921
5395, 5707, 2808, 5714, 5716
5396, 2695, 5707, 5716, 5215
5397, 3567, 5720, 5717, 1895
5398, 5720, 5718, 2810, 5717
5399, 5719, 2811, 5718, 5720
5400, 2270, 5719, 5720, 3567
5401, 5722, 5723, 3577, 1977
5402, 5723, 5719, 2270, 3577
5403, 5721, 2811, 5719, 5723
5404, 2809, 5721, 5723, 5722
5405, 5318, 5726, 5724, 1939
5406, 5726, 5721, 2809, 5724
5407, 5725, 2811, 5721, 5726
5408, 2721, 5725, 5726, 5318
5409, 5727, 5728, 5316, 1876
5410, 5728, 5725, 2721, 5316
5411, 5718, 2811, 5725, 5728
5412, 2810, 5718, 5728, 5727
5413, 5731, 5732, 4847, 1881
5414, 5732, 5729, 2615, 4847
5415, 5730, 2815, 5729, 5732
5416, 2812, 5730, 5732, 5731
5417, 5735, 5736, 5733, 1859
5418, 5736, 5730, 2812, 5733
5419, 5734, 2815, 5730, 5736
5420, 2813, 5734, 5736, 5735
5421, 5739, 5740, 5737, 1814
5422, 5740, 5734, 2813, 5737
5423, 5738, 2815, 5734, 5740
5424, 2814, 5738, 5740, 5739
5425, 4849, 5742, 5741, 1901
5426, 5742, 5738, 2814, 5741
5427, 5729, 2815, 5738, 5742
5428, 2615, 5729, 5742, 4849
5429, 4989, 5746, 5743, 1950
5430, 5746, 5744, 2817, 5743
5431, 5745, 2818, 5744, 5746
5432, 2646, 5745, 5746, 4989
5433, 5748, 5749, 4987, 1925
5434, 5749, 5745, 2646, 4987
5435, 5747, 2818, 5745, 5749
5436, 2816, 5747, 5749, 5748
5437, 4102, 5752, 5750, 1899
5438, 5752, 5747, 2816, 5750
5439, 5751, 2818, 5747, 5752
5440, 2417, 5751, 5752, 4102
5441, 5753, 5754, 4100, 1911
5442, 5754, 5751, 2417, 4100
5443, 5744, 2818, 5751, 5754
5444, 2817, 5744, 5754, 5753
5445, 5713, 5757, 3497, 1989
5446, 5757, 5755, 2244, 3497
5447, 5756, 2821, 5755, 5757
5448, 2807, 5756, 5757, 5713
5449, 5759, 5760, 5711, 2013
5450, 5760, 5756, 2807, 5711
5451, 5758, 2821, 5756, 5760
5452, 2819, 5758, 5760, 5759
5453, 5763, 5764, 5761, 1999
5454, 5764, 5758, 2819, 5761
5455, 5762, 2821, 5758, 5764
5456, 2820, 5762, 5764, 5763
5457, 3487, 5766, 5765, 1973
5458, 5766, 5762, 2820, 5765
5459, 5755, 2821, 5762, 5766
5460, 2244, 5755, 5766, 3487
5461, 5770, 5771, 5767, 1851
5462, 5771, 5768, 2823, 5767
5463, 5769, 2824, 5768, 5771
5464, 2822, 5769, 5771, 5770
5465, 5435, 5774, 5772, 1818
5466, 5774, 5769, 2822, 5772
5467, 5773, 2824, 5769, 5774
5468, 2750, 5773, 5774, 5435
5469, 3514, 5776, 5445, 1877
5470, 5776, 5773, 2750, 5445
5471, 5775, 2824, 5773, 5776
5472, 2249, 5775, 5776, 3514
5473, 5777, 5778, 3512, 1896
5474, 5778, 5775, 2249, 3512
5475, 5768, 2824, 5775, 5778
5476, 2823, 5768, 5778, 5777
5477, 3161, 5781, 3883, 2079
5478, 5781, 5779, 2359, 3883
5479, 5780, 2826, 5779, 5781
5480, 2137, 5780, 5781, 3161
5481, 3218, 5783, 3171, 2080
5482, 5783, 5780, 2137, 3171
5483, 5782, 2826, 5780, 5783
5484, 2152, 5782, 5783, 3218
5485, 5785, 5786, 3216, 2068
5486, 5786, 5782, 2152, 3216
5487, 5784, 2826, 5782, 5786
5488, 2825, 5784, 5786, 5785
5489, 3869, 5788, 5787, 2074
5490, 5788, 5784, 2825, 5787
5491, 5779, 2826, 5784, 5788
5492, 2359, 5779, 5788, 3869
5493, 5792, 5793, 5789, 1857
5494, 5793, 5790, 2828, 5789
5495, 5791, 2829, 5790, 5793
5496, 2827, 5791, 5793, 5792
5497, 5401, 5796, 5794, 1847
5498, 5796, 5791, 2827, 5794
5499, 5795, 2829, 5791, 5796
5500, 2743, 5795, 5796, 5401
5501, 5501, 5798, 5413, 1905
5502, 5798, 5795, 2743, 5413
5503, 5797, 2829, 5795, 5798
5504, 2760, 5797, 5798, 5501
5505, 5799, 5800, 5499, 1863
5506, 5800, 5797, 2760, 5499
5507, 5790, 2829, 5797, 5800
5508, 2828, 5790, 5800, 5799
5509, 5616, 5803, 3236, 1930
5510, 5803, 5801, 2159, 3236
5511, 5802, 2830, 5801, 5803
5512, 2784, 5802, 5803, 5616
5513, 4085, 5805, 5614, 1870
5514, 5805, 5802, 2784, 5614
5515, 5804, 2830, 5802, 5805
5516, 2413, 5804, 5805, 4085
5517, 4013, 5807, 4083, 1823
5518, 5807, 5804, 2413, 4083
5519, 5806, 2830, 5804, 5807
5520, 2394, 5806, 5807, 4013
5521, 3238, 5808, 4011, 1880
5522, 5808, 5806, 2394, 4011
5523, 5801, 2830, 5806, 5808
5524, 2159, 5801, 5808, 3238
5525, 4817, 5811, 5559, 2001
5526, 5811, 5809, 2771, 5559
5527, 5810, 2831, 5809, 5811
5528, 2607, 5810, 5811, 4817
5529, 4747, 5813, 4815, 1922
5530, 5813, 5810, 2607, 4815
5531, 5812, 2831, 5810, 5813
5532, 2594, 5812, 5813, 4747
5533, 5290, 5815, 4761, 1867
5534, 5815, 5812, 2594, 4761
5535, 5814, 2831, 5812, 5815
5536, 2714, 5814, 5815, 5290
5537, 5551, 5816, 5288, 1959
5538, 5816, 5814, 2714, 5288
5539, 5809, 2831, 5814, 5816
5540, 2771, 5809, 5816, 5551
5541, 5820, 5821, 5817, 1850
5542, 5821, 5818, 2833, 5817
5543, 5819, 2834, 5818, 5821
5544, 2832, 5819, 5821, 5820
5545, 5717, 5824, 5822, 1895
5546, 5824, 5819, 2832, 5822
5547, 5823, 2834, 5819, 5824
5548, 2810, 5823, 5824, 5717
5549, 5473, 5826, 5727, 1876
5550, 5826, 5823, 2810, 5727
5551, 5825, 2834, 5823, 5826
5552, 2755, 5825, 5826, 5473
5553, 5827, 5828, 5471, 1831
5554, 5828, 5825, 2755, 5471
5555, 5818, 2834, 5825, 5828
5556, 2833, 5818, 5828, 5827
5557, 5831, 5832, 3080, 1830
5558, 5832, 5829, 2107, 3080
5559, 5830, 2837, 5829, 5832
5560, 2835, 5830, 5832, 5831
5561, 391, 5835, 5833, 392
5562, 5835, 5830, 2835, 5833
5563, 5834, 2837, 5830, 5835
5564, 390, 5834, 5835, 391
5565, 5837, 5838, 389, 388
5566, 5838, 5834, 390, 389
5567, 5836, 2837, 5834, 5838
5568, 2836, 5836, 5838, 5837
5569, 3082, 5840, 5839, 1837
5570, 5840, 5836, 2836, 5839
5571, 5829, 2837, 5836, 5840
5572, 2107, 5829, 5840, 3082
5573, 344, 5844, 5841, 345
5574, 5844, 5842, 2839, 5841
5575, 5843, 2840, 5842, 5844
5576, 343, 5843, 5844, 344
5577, 5846, 5847, 342, 341
5578, 5847, 5843, 343, 342
5579, 5845, 2840, 5843, 5847
5580, 2838, 5845, 5847, 5846
5581, 3002, 5850, 5848, 1883
5582, 5850, 5845, 2838, 5848
5583, 5849, 2840, 5845, 5850
5584, 2081, 5849, 5850, 3002
5585, 5851, 5852, 3000, 1821
5586, 5852, 5849, 2081, 3000
5587, 5842, 2840, 5849, 5852
5588, 2839, 5842, 5852, 5851
5589, 3376, 5856, 5853, 1954
5590, 5856, 5854, 2843, 5853
5591, 5855, 2844, 5854, 5856
5592, 2204, 5855, 5856, 3376
5593, 5858, 5859, 3374, 2004
5594, 5859, 5855, 2204, 3374
5595, 5857, 2844, 5855, 5859
5596, 2841, 5857, 5859, 5858
5597, 5862, 5863, 5860, 1913
5598, 5863, 5857, 2841, 5860
5599, 5861, 2844, 5857, 5863
5600, 2842, 5861, 5863, 5862
5601, 5865, 5866, 5864, 1946
5602, 5866, 5861, 2842, 5864
5603, 5854, 2844, 5861, 5866
5604, 2843, 5854, 5866, 5865
5605, 5869, 5870, 3750, 2020
5606, 5870, 5867, 2321, 3750
5607, 5868, 2846, 5867, 5870
5608, 2845, 5868, 5870, 5869
5609, 5671, 5873, 5871, 2010
5610, 5873, 5868, 2845, 5871
5611, 5872, 2846, 5868, 5873
5612, 2798, 5872, 5873, 5671
5613, 3286, 5875, 5669, 2035
5614, 5875, 5872, 2798, 5669
5615, 5874, 2846, 5872, 5875
5616, 2175, 5874, 5875, 3286
5617, 3752, 5876, 3284, 2044
5618, 5876, 5874, 2175, 3284
5619, 5867, 2846, 5874, 5876
5620, 2321, 5867, 5876, 3752
5621, 3202, 5880, 5877, 1903
5622, 5880, 5878, 2847, 5877
5623, 5879, 2848, 5878, 5880
5624, 2147, 5879, 5880, 3202
5625, 3404, 5882, 3200, 1923
5626, 5882, 5879, 2147, 3200
5627, 5881, 2848, 5879, 5882
5628, 2213, 5881, 5882, 3404
5629, 3324, 5884, 3402, 1827
5630, 5884, 5881, 2213, 3402
5631, 5883, 2848, 5881, 5884
5632, 2187, 5883, 5884, 3324
5633, 5885, 5886, 3322, 17
5634, 5886, 5883, 2187, 3322
5635, 5878, 2848, 5883, 5886
5636, 2847, 5878, 5886, 5885
5637, 5890, 5891, 5887, 1929
5638, 5891, 5888, 2852, 5887
5639, 5889, 2853, 5888, 5891
5640, 2849, 5889, 5891, 5890
5641, 5894, 5895, 5892, 1904
5642, 5895, 5889, 2849, 5892
5643, 5893, 2853, 5889, 5895
5644, 2850, 5893, 5895, 5894
5645, 5898, 5899, 5896, 1824
5646, 5899, 5893, 2850, 5896
5647, 5897, 2853, 5893, 5899
5648, 2851, 5897, 5899, 5898
5649, 5901, 5902, 5900, 1871
5650, 5902, 5897, 2851, 5900
5651, 5888, 2853, 5897, 5902
5652, 2852, 5888, 5902, 5901
5653, 5906, 5907, 5903, 1854
5654, 5907, 5904, 2856, 5903
5655, 5905, 2857, 5904, 5907
5656, 2854, 5905, 5907, 5906
5657, 5767, 5910, 5908, 1851
5658, 5910, 5905, 2854, 5908
5659, 5909, 2857, 5905, 5910
5660, 2823, 5909, 5910, 5767
5661, 5912, 5913, 5777, 1896
5662, 5913, 5909, 2823, 5777
5663, 5911, 2857, 5909, 5913
5664, 2855, 5911, 5913, 5912
5665, 5915, 5916, 5914, 1898
5666, 5916, 5911, 2855, 5914
5667, 5904, 2857, 5911, 5916
5668, 2856, 5904, 5916, 5915
5669, 4619, 5920, 5917, 1875
5670, 5920, 5918, 2859, 5917
5671, 5919, 2860, 5918, 5920
5672, 2556, 5919, 5920, 4619
5673, 5410, 5922, 4617, 1887
5674, 5922, 5919, 2556, 4617
5675, 5921, 2860, 5919, 5922
5676, 2742, 5921, 5922, 5410
5677, 5924, 5925, 5408, 1836
5678, 5925, 5921, 2742, 5408
5679, 5923, 2860, 5921, 5925
5680, 2858, 5923, 5925, 5924
5681, 5927, 5928, 5926, 1821
5682, 5928, 5923, 2858, 5926
5683, 5918, 2860, 5923, 5928
5684, 2859, 5918, 5928, 5927
5685, 5733, 5932, 5929, 1859
5686, 5932, 5930, 2861, 5929
5687, 5931, 2862, 5930, 5932
5688, 2812, 5931, 5932, 5733
5689, 4971, 5934, 5731, 1881
5690, 5934, 5931, 2812, 5731
5691, 5933, 2862, 5931, 5934
5692, 2643, 5933, 5934, 4971
5693, 5625, 5936, 4979, 1878
5694, 5936, 5933, 2643, 4979
5695, 5935, 2862, 5933, 5936
5696, 2787, 5935, 5936, 5625
5697, 5937, 5938, 5623, 1837
5698, 5938, 5935, 2787, 5623
5699, 5930, 2862, 5935, 5938
5700, 2861, 5930, 5938, 5937
5701, 5941, 5942, 4077, 2046
5702, 5942, 5939, 2411, 4077
5703, 5940, 2865, 5939, 5942
5704, 2863, 5940, 5942, 5941
5705, 5569, 5945, 5943, 2061
5706, 5945, 5940, 2863, 5943
5707, 5944, 2865, 5940, 5945
5708, 2773, 5944, 5945, 5569
5709, 5947, 5948, 5567, 2037
5710, 5948, 5944, 2773, 5567
5711, 5946, 2865, 5944, 5948
5712, 2864, 5946, 5948, 5947
5713, 4065, 5950, 5949, 2021
5714, 5950, 5946, 2864, 5949
5715, 5939, 2865, 5946, 5950
5716, 2411, 5939, 5950, 4065
5717, 3822, 5954, 5951, 1965
5718, 5954, 5952, 2866, 5951
5719, 5953, 2867, 5952, 5954
5720, 2341, 5953, 5954, 3822
5721, 3951, 5956, 3820, 1993
5722, 5956, 5953, 2341, 3820
5723, 5955, 2867, 5953, 5956
5724, 2382, 5955, 5956, 3951
5725, 5177, 5958, 3965, 2023
5726, 5958, 5955, 2382, 3965
5727, 5957, 2867, 5955, 5958
5728, 2687, 5957, 5958, 5177
5729, 5959, 5960, 5175, 2048
5730, 5960, 5957, 2687, 5175
5731, 5952, 2867, 5957, 5960
5732, 2866, 5952, 5960, 5959
5733, 5964, 5965, 5961, 1853
5734, 5965, 5962, 2869, 5961
5735, 5963, 2870, 5962, 5965
5736, 2868, 5963, 5965, 5964
5737, 3572, 5968, 5966, 1897
5738, 5968, 5963, 2868, 5966
5739, 5967, 2870, 5963, 5968
5740, 2268, 5967, 5968, 3572
5741, 5822, 5970, 3570, 1895
5742, 5970, 5967, 2268, 3570
5743, 5969, 2870, 5967, 5970
5744, 2832, 5969, 5970, 5822
5745, 5971, 5972, 5820, 1850
5746, 5972, 5969, 2832, 5820
5747, 5962, 2870, 5969, 5972
5748, 2869, 5962, 5972, 5971
5749, 5695, 5976, 5973, 2000
5750, 5976, 5974, 2872, 5973
5751, 5975, 2873, 5974, 5976
5752, 2803, 5975, 5976, 5695
5753, 5853, 5978, 5693, 1954
5754, 5978, 5975, 2803, 5693
5755, 5977, 2873, 5975, 5978
5756, 2843, 5977, 5978, 5853
5757, 5980, 5981, 5865, 1946
5758, 5981, 5977, 2843, 5865
5759, 5979, 2873, 5977, 5981
5760, 2871, 5979, 5981, 5980
5761, 5983, 5984, 5982, 1920
5762, 5984, 5979, 2871, 5982
5763, 5974, 2873, 5979, 5984
5764, 2872, 5974, 5984, 5983
5765, 4780, 5988, 5985, 2025
5766, 5988, 5986, 2874, 5985
5767, 5987, 2875, 5986, 5988
5768, 2598, 5987, 5988, 4780
5769, 4831, 5990, 4778, 2017
5770, 5990, 5987, 2598, 4778
5771, 5989, 2875, 5987, 5990
5772, 2610, 5989, 5990, 4831
5773, 3905, 5992, 4829, 2043
5774, 5992, 5989, 2610, 4829
5775, 5991, 2875, 5989, 5992
5776, 2365, 5991, 5992, 3905
5777, 5993, 5994, 3903, 1986
5778, 5994, 5991, 2365, 3903
5779, 5986, 2875, 5991, 5994
5780, 2874, 5986, 5994, 5993
5781, 5423, 5997, 4881, 2076
5782, 5997, 5995, 2622, 4881
5783, 5996, 2876, 5995, 5997
5784, 2745, 5996, 5997, 5423
5785, 3194, 5999, 5421, 2067
5786, 5999, 5996, 2745, 5421
5787, 5998, 2876, 5996, 5999
5788, 2144, 5998, 5999, 3194
5789, 5224, 6001, 3192, 2051
5790, 6001, 5998, 2144, 3192
5791, 6000, 2876, 5998, 6001
5792, 2697, 6000, 6001, 5224
5793, 4883, 6002, 5222, 2072
5794, 6002, 6000, 2697, 5222
5795, 5995, 2876, 6000, 6002
5796, 2622, 5995, 6002, 4883
5797, 6006, 6007, 6003, 1858
5798, 6007, 6004, 2878, 6003
5799, 6005, 2879, 6004, 6007
5800, 2877, 6005, 6007, 6006
5801, 3536, 6010, 6008, 1862
5802, 6010, 6005, 2877, 6008
5803, 6009, 2879, 6005, 6010
5804, 2256, 6009, 6010, 3536
5805, 5741, 6012, 3534, 1901
5806, 6012, 6009, 2256, 3534
5807, 6011, 2879, 6009, 6012
5808, 2814, 6011, 6012, 5741
5809, 6013, 6014, 5739, 1814
5810, 6014, 6011, 2814, 5739
5811, 6004, 2879, 6011, 6014
5812, 2878, 6004, 6014, 6013
5813, 5772, 6017, 5537, 1818
5814, 6017, 6015, 2768, 5537
5815, 6016, 2881, 6015, 6017
5816, 2822, 6016, 6017, 5772
5817, 6019, 6020, 5770, 1851
5818, 6020, 6016, 2822, 5770
5819, 6018, 2881, 6016, 6020
5820, 2880, 6018, 6020, 6019
5821, 415, 6023, 6021, 416
5822, 6023, 6018, 2880, 6021
5823, 6022, 2881, 6018, 6023
5824, 414, 6022, 6023, 415
5825, 5539, 6024, 413, 31
5826, 6024, 6022, 414, 413
5827, 6015, 2881, 6022, 6024
5828, 2768, 6015, 6024, 5539
5829, 6027, 6028, 318, 317
5830, 6028, 6025, 319, 318
5831, 6026, 2883, 6025, 6028
5832, 2882, 6026, 6028, 6027
5833, 5817, 6031, 6029, 1850
5834, 6031, 6026, 2882, 6029
5835, 6030, 2883, 6026, 6031
5836, 2833, 6030, 6031, 5817
5837, 5507, 6033, 5827, 1831
5838, 6033, 6030, 2833, 5827
5839, 6032, 2883, 6030, 6033
5840, 2762, 6032, 6033, 5507
5841, 320, 6034, 5505, 8
5842, 6034, 6032, 2762, 5505
5843, 6025, 2883, 6032, 6034
5844, 319, 6025, 6034, 320
5845, 6038, 6039, 6035, 1815
5846, 6039, 6036, 2886, 6035
5847, 6037, 2887, 6036, 6039
5848, 2884, 6037, 6039, 6038
5849, 5789, 6042, 6040, 1857
5850, 6042, 6037, 2884, 6040
5851, 6041, 2887, 6037, 6042
5852, 2828, 6041, 6042, 5789
5853, 6044, 6045, 5799, 1863
5854, 6045, 6041, 2828, 5799
5855, 6043, 2887, 6041, 6045
5856, 2885, 6043, 6045, 6044
5857, 6047, 6048, 6046, 1897
5858, 6048, 6043, 2885, 6046
5859, 6036, 2887, 6043, 6048
5860, 2886, 6036, 6048, 6047
5861, 6052, 6053, 6049, 1832
5862, 6053, 6050, 2890, 6049
5863, 6051, 2891, 6050, 6053
5864, 2888, 6051, 6053, 6052
5865, 6056, 6057, 6054, 1898
5866, 6057, 6051, 2888, 6054
5867, 6055, 2891, 6051, 6057
5868, 2889, 6055, 6057, 6056
5869, 6008, 6060, 6058, 1862
5870, 6060, 6055, 2889, 6058
5871, 6059, 2891, 6055, 6060
5872, 2877, 6059, 6060, 6008
5873, 6061, 6062, 6006, 1858
5874, 6062, 6059, 2877, 6006
5875, 6050, 2891, 6059, 6062
5876, 2890, 6050, 6062, 6061
5877, 5908, 6065, 6019, 1851
5878, 6065, 6063, 2880, 6019
5879, 6064, 2892, 6063, 6065
5880, 2854, 6064, 6065, 5908
5881, 3528, 6067, 5906, 1854
5882, 6067, 6064, 2854, 5906
5883, 6066, 2892, 6064, 6067
5884, 2253, 6066, 6067, 3528
5885, 419, 6069, 3526, 30
5886, 6069, 6066, 2253, 3526
5887, 6068, 2892, 6066, 6069
5888, 418, 6068, 6069, 419
5889, 6021, 6070, 417, 416
5890, 6070, 6068, 418, 417
5891, 6063, 2892, 6068, 6070
5892, 2880, 6063, 6070, 6021
5893, 3453, 6073, 314, 9
5894, 6073, 6071, 315, 314
5895, 6072, 2893, 6071, 6073
5896, 2232, 6072, 6073, 3453
5897, 5961, 6075, 3461, 1853
5898, 6075, 6072, 2232, 3461
5899, 6074, 2893, 6072, 6075
5900, 2869, 6074, 6075, 5961
5901, 6029, 6077, 5971, 1850
5902, 6077, 6074, 2869, 5971
5903, 6076, 2893, 6074, 6077
5904, 2882, 6076, 6077, 6029
5905, 316, 6078, 6027, 317
5906, 6078, 6076, 2882, 6027
5907, 6071, 2893, 6076, 6078
5908, 315, 6071, 6078, 316
5909, 5794, 6082, 6079, 1847
5910, 6082, 6080, 2895, 6079
5911, 6081, 2896, 6080, 6082
5912, 2827, 6081, 6082, 5794
5913, 6084, 6085, 5792, 1857
5914, 6085, 6081, 2827, 5792
5915, 6083, 2896, 6081, 6085
5916, 2894, 6083, 6085, 6084
5917, 330, 6088, 6086, 331
5918, 6088, 6083, 2894, 6086
5919, 6087, 2896, 6083, 6088
5920, 329, 6087, 6088, 330
5921, 6089, 6090, 328, 11
5922, 6090, 6087, 329, 328
5923, 6080, 2896, 6087, 6090
5924, 2895, 6080, 6090, 6089
5925, 6093, 6094, 403, 402
5926, 6094, 6091, 404, 403
5927, 6092, 2899, 6091, 6094
5928, 2897, 6092, 6094, 6093
5929, 6003, 6097, 6095, 1858
5930, 6097, 6092, 2897, 6095
5931, 6096, 2899, 6092, 6097
5932, 2878, 6096, 6097, 6003
5933, 6099, 6100, 6013, 1814
5934, 6100, 6096, 2878, 6013
5935, 6098, 2899, 6096, 6100
5936, 2898, 6098, 6100, 6099
5937, 405, 6102, 6101, 28
5938, 6102, 6098, 2898, 6101
5939, 6091, 2899, 6098, 6102
5940, 404, 6091, 6102, 405
5941, 5839, 6105, 5937, 1837
5942, 6105, 6103, 2861, 5937
5943, 6104, 2901, 6103, 6105
5944, 2836, 6104, 6105, 5839
5945, 387, 6107, 5837, 388
5946, 6107, 6104, 2836, 5837
5947, 6106, 2901, 6104, 6107
5948, 386, 6106, 6107, 387
5949, 6109, 6110, 385, 27
5950, 6110, 6106, 386, 385
5951, 6108, 2901, 6106, 6110
5952, 2900, 6108, 6110, 6109
5953, 5929, 6112, 6111, 1859
5954, 6112, 6108, 2900, 6111
5955, 6103, 2901, 6108, 6112
5956, 2861, 6103, 6112, 5929
5957, 348, 6116, 6113, 12
5958, 6116, 6114, 2902, 6113
5959, 6115, 2903, 6114, 6116
5960, 347, 6115, 6116, 348
5961, 5841, 6118, 346, 345
5962, 6118, 6115, 347, 346
5963, 6117, 2903, 6115, 6118
5964, 2839, 6117, 6118, 5841
5965, 5926, 6120, 5851, 1821
5966, 6120, 6117, 2839, 5851
5967, 6119, 2903, 6117, 6120
5968, 2858, 6119, 6120, 5926
5969, 6121, 6122, 5924, 1836
5970, 6122, 6119, 2858, 5924
5971, 6114, 2903, 6119, 6122
5972, 2902, 6114, 6122, 6121
5973, 334, 6125, 3448, 10
5974, 6125, 6123, 2228, 3448
5975, 6124, 2904, 6123, 6125
5976, 333, 6124, 6125, 334
5977, 6086, 6127, 332, 331
5978, 6127, 6124, 333, 332
5979, 6126, 2904, 6124, 6127
5980, 2894, 6126, 6127, 6086
5981, 6040, 6129, 6084, 1857
5982, 6129, 6126, 2894, 6084
5983, 6128, 2904, 6126, 6129
5984, 2884, 6128, 6129, 6040
5985, 3450, 6130, 6038, 1815
5986, 6130, 6128, 2884, 6038
5987, 6123, 2904, 6128, 6130
5988, 2228, 6123, 6130, 3450
5989, 3499, 6133, 399, 29
5990, 6133, 6131, 400, 399
5991, 6132, 2905, 6131, 6133
5992, 2247, 6132, 6133, 3499
5993, 6049, 6135, 3507, 1832
5994, 6135, 6132, 2247, 3507
5995, 6134, 2905, 6132, 6135
5996, 2890, 6134, 6135, 6049
5997, 6095, 6137, 6061, 1858
5998, 6137, 6134, 2890, 6061
5999, 6136, 2905, 6134, 6137
6000, 2897, 6136, 6137, 6095
6001, 401, 6138, 6093, 402
6002, 6138, 6136, 2897, 6093
6003, 6131, 2905, 6136, 6138
6004, 400, 6131, 6138, 401
6005, 6142, 6143, 6139, 1934
6006, 6143, 6140, 2907, 6139
6007, 6141, 2908, 6140, 6143
6008, 2906, 6141, 6143, 6142
6009, 3098, 6146, 6144, 1886
6010, 6146, 6141, 2906, 6144
6011, 6145, 2908, 6141, 6146
6012, 2112, 6145, 6146, 3098
6013, 4290, 6148, 3096, 1873
6014, 6148, 6145, 2112, 3096
6015, 6147, 2908, 6145, 6148
6016, 2468, 6147, 6148, 4290
6017, 6149, 6150, 4288, 1921
6018, 6150, 6147, 2468, 4288
6019, 6140, 2908, 6147, 6150
6020, 2907, 6140, 6150, 6149
6021, 6153, 6154, 5901, 1871
6022, 6154, 6151, 2852, 5901
6023, 6152, 2912, 6151, 6154
6024, 2909, 6152, 6154, 6153
6025, 6157, 6158, 6155, 1943
6026, 6158, 6152, 2909, 6155
6027, 6156, 2912, 6152, 6158
6028, 2910, 6156, 6158, 6157
6029, 6161, 6162, 6159, 1972
6030, 6162, 6156, 2910, 6159
6031, 6160, 2912, 6156, 6162
6032, 2911, 6160, 6162, 6161
6033, 5887, 6164, 6163, 1929
6034, 6164, 6160, 2911, 6163
6035, 6151, 2912, 6160, 6164
6036, 2852, 6151, 6164, 5887
6037, 4446, 6167, 3029, 1839
6038, 6167, 6165, 2090, 3029
6039, 6166, 2913, 6165, 6167
6040, 2511, 6166, 6167, 4446
6041, 4043, 6169, 4444, 1928
6042, 6169, 6166, 2511, 4444
6043, 6168, 2913, 6166, 6169
6044, 2402, 6168, 6169, 4043
6045, 5848, 6171, 4041, 1883
6046, 6171, 6168, 2402, 4041
6047, 6170, 2913, 6168, 6171
6048, 2838, 6170, 6171, 5848
6049, 3021, 6172, 5846, 341
6050, 6172, 6170, 2838, 5846
6051, 6165, 2913, 6170, 6172
6052, 2090, 6165, 6172, 3021
6053, 354, 6175, 3344, 14
6054, 6175, 6173, 2194, 3344
6055, 6174, 2915, 6173, 6175
6056, 353, 6174, 6175, 354
6057, 6177, 6178, 352, 15
6058, 6178, 6174, 353, 352
6059, 6176, 2915, 6174, 6178
6060, 2914, 6176, 6178, 6177
6061, 3548, 6181, 6179, 1855
6062, 6181, 6176, 2914, 6179
6063, 6180, 2915, 6176, 6181
6064, 2260, 6180, 6181, 3548
6065, 3346, 6182, 3546, 1820
6066, 6182, 6180, 2260, 3546
6067, 6173, 2915, 6180, 6182
6068, 2194, 6173, 6182, 3346
6069, 6185, 6186, 3594, 1856
6070, 6186, 6183, 2276, 3594
6071, 6184, 2917, 6183, 6186
6072, 2916, 6184, 6186, 6185
6073, 381, 6189, 6187, 24
6074, 6189, 6184, 2916, 6187
6075, 6188, 2917, 6184, 6189
6076, 380, 6188, 6189, 381
6077, 3349, 6191, 379, 25
6078, 6191, 6188, 380, 379
6079, 6190, 2917, 6188, 6191
6080, 2198, 6190, 6191, 3349
6081, 3596, 6192, 3357, 1817
6082, 6192, 6190, 2198, 3357
6083, 6183, 2917, 6190, 6192
6084, 2276, 6183, 6192, 3596
6085, 6035, 6195, 3451, 1815
6086, 6195, 6193, 2229, 3451
6087, 6194, 2918, 6193, 6195
6088, 2886, 6194, 6195, 6035
6089, 5966, 6197, 6047, 1897
6090, 6197, 6194, 2886, 6047
6091, 6196, 2918, 6194, 6197
6092, 2868, 6196, 6197, 5966
6093, 3460, 6199, 5964, 1853
6094, 6199, 6196, 2868, 5964
6095, 6198, 2918, 6196, 6199
6096, 2231, 6198, 6199, 3460
6097, 3443, 6200, 3458, 324
6098, 6200, 6198, 2231, 3458
6099, 6193, 2918, 6198, 6200
6100, 2229, 6193, 6200, 3443
6101, 3158, 6203, 5241, 1888
6102, 6203, 6201, 2702, 5241
6103, 6202, 2920, 6201, 6203
6104, 2132, 6202, 6203, 3158
6105, 6205, 6206, 3156, 1849
6106, 6206, 6202, 2132, 3156
6107, 6204, 2920, 6202, 6206
6108, 2919, 6204, 6206, 6205
6109, 3591, 6209, 6207, 1856
6110, 6209, 6204, 2919, 6207
6111, 6208, 2920, 6204, 6209
6112, 2278, 6208, 6209, 3591
6113, 5229, 6210, 3601, 1893
6114, 6210, 6208, 2278, 3601
6115, 6201, 2920, 6208, 6210
6116, 2702, 6201, 6210, 5229
6117, 6213, 6214, 3550, 1855
6118, 6214, 6211, 2261, 3550
6119, 6212, 2923, 6211, 6214
6120, 2921, 6212, 6214, 6213
6121, 3118, 6217, 6215, 1848
6122, 6217, 6212, 2921, 6215
6123, 6216, 2923, 6212, 6217
6124, 2119, 6216, 6217, 3118
6125, 6219, 6220, 3116, 1872
6126, 6220, 6216, 2119, 3116
6127, 6218, 2923, 6216, 6220
6128, 2922, 6218, 6220, 6219
6129, 3552, 6222, 6221, 1892
6130, 6222, 6218, 2922, 6221
6131, 6211, 2923, 6218, 6222
6132, 2261, 6211, 6222, 3552
6133, 6163, 6226, 6223, 1929
6134, 6226, 6224, 2924, 6223
6135, 6225, 2925, 6224, 6226
6136, 2911, 6225, 6226, 6163
6137, 3146, 6228, 6161, 1972
6138, 6228, 6225, 2911, 6161
6139, 6227, 2925, 6225, 6228
6140, 2128, 6227, 6228, 3146
6141, 3395, 6230, 3144, 1900
6142, 6230, 6227, 2128, 3144
6143, 6229, 2925, 6227, 6230
6144, 2214, 6229, 6230, 3395
6145, 6231, 6232, 3405, 1923
6146, 6232, 6229, 2214, 3405
6147, 6224, 2925, 6229, 6232
6148, 2924, 6224, 6232, 6231
6149, 5982, 6235, 3140, 1920
6150, 6235, 6233, 2127, 3140
6151, 6234, 2927, 6233, 6235
6152, 2871, 6234, 6235, 5982
6153, 6237, 6238, 5980, 1946
6154, 6238, 6234, 2871, 5980
6155, 6236, 2927, 6234, 6238
6156, 2926, 6236, 6238, 6237
6157, 3113, 6241, 6239, 1872
6158, 6241, 6236, 2926, 6239
6159, 6240, 2927, 6236, 6241
6160, 2121, 6240, 6241, 3113
6161, 3142, 6242, 3123, 1900
6162, 6242, 6240, 2121, 3123
6163, 6233, 2927, 6240, 6242
6164, 2127, 6233, 6242, 3142
6165, 3400, 6245, 3325, 1827
6166, 6245, 6243, 2188, 3325
6167, 6244, 2929, 6243, 6245
6168, 2212, 6244, 6245, 3400
6169, 3122, 6247, 3398, 1900
6170, 6247, 6244, 2212, 3398
6171, 6246, 2929, 6244, 6247
6172, 2120, 6246, 6247, 3122
6173, 6249, 6250, 3120, 1848
6174, 6250, 6246, 2120, 3120
6175, 6248, 2929, 6246, 6250
6176, 2928, 6248, 6250, 6249
6177, 3317, 6252, 6251, 16
6178, 6252, 6248, 2928, 6251
6179, 6243, 2929, 6248, 6252
6180, 2188, 6243, 6252, 3317
6181, 3154, 6256, 6253, 1849
6182, 6256, 6254, 2931, 6253
6183, 6255, 2932, 6254, 6256
6184, 2131, 6255, 6256, 3154
6185, 5900, 6258, 3152, 1871
6186, 6258, 6255, 2131, 3152
6187, 6257, 2932, 6255, 6258
6188, 2851, 6257, 6258, 5900
6189, 6260, 6261, 5898, 1824
6190, 6261, 6257, 2851, 5898
6191, 6259, 2932, 6257, 6261
6192, 2930, 6259, 6261, 6260
6193, 6263, 6264, 6262, 23
6194, 6264, 6259, 2930, 6262
6195, 6254, 2932, 6259, 6264
6196, 2931, 6254, 6264, 6263
6197, 6267, 6268, 5495, 1973
6198, 6268, 6265, 2759, 5495
6199, 6266, 2934, 6265, 6268
6200, 2933, 6266, 6268, 6267
6201, 3576, 6271, 6269, 1977
6202, 6271, 6266, 2933, 6269
6203, 6270, 2934, 6266, 6271
6204, 2269, 6270, 6271, 3576
6205, 6046, 6273, 3574, 1897
6206, 6273, 6270, 2269, 3574
6207, 6272, 2934, 6270, 6273
6208, 2885, 6272, 6273, 6046
6209, 5497, 6274, 6044, 1863
6210, 6274, 6272, 2885, 6044
6211, 6265, 2934, 6272, 6274
6212, 2759, 6265, 6274, 5497
6213, 6111, 6277, 5735, 1859
6214, 6277, 6275, 2813, 5735
6215, 6276, 2935, 6275, 6277
6216, 2900, 6276, 6277, 6111
6217, 398, 6279, 6109, 27
6218, 6279, 6276, 2900, 6109
6219, 6278, 2935, 6276, 6279
6220, 397, 6278, 6279, 398
6221, 6101, 6281, 396, 28
6222, 6281, 6278, 397, 396
6223, 6280, 2935, 6278, 6281
6224, 2898, 6280, 6281, 6101
6225, 5737, 6282, 6099, 1814
6226, 6282, 6280, 2898, 6099
6227, 6275, 2935, 6280, 6282
6228, 2813, 6275, 6282, 5737
6229, 337, 6285, 6089, 11
6230, 6285, 6283, 2895, 6089
6231, 6284, 2936, 6283, 6285
6232, 336, 6284, 6285, 337
6233, 6113, 6287, 335, 12
6234, 6287, 6284, 336, 335
6235, 6286, 2936, 6284, 6287
6236, 2902, 6286, 6287, 6113
6237, 5406, 6289, 6121, 1836
6238, 6289, 6286, 2902, 6121
6239, 6288, 2936, 6286, 6289
6240, 2741, 6288, 6289, 5406
6241, 6079, 6290, 5404, 1847
6242, 6290, 6288, 2741, 5404
6243, 6283, 2936, 6288, 6290
6244, 2895, 6283, 6290, 6079
6245, 6294, 6295, 6291, 1999
6246, 6295, 6292, 2938, 6291
6247, 6293, 2939, 6292, 6295
6248, 2937, 6293, 6295, 6294
6249, 5399, 6298, 6296, 2028
6250, 6298, 6293, 2937, 6296
6251, 6297, 2939, 6293, 6298
6252, 2739, 6297, 6298, 5399
6253, 3484, 6300, 5397, 1951
6254, 6300, 6297, 2739, 5397
6255, 6299, 2939, 6297, 6300
6256, 2239, 6299, 6300, 3484
6257, 6301, 6302, 3482, 1939
6258, 6302, 6299, 2239, 3482
6259, 6292, 2939, 6299, 6302
6260, 2938, 6292, 6302, 6301
6261, 5240, 6305, 3159, 1888
6262, 6305, 6303, 2133, 3159
6263, 6304, 2941, 6303, 6305
6264, 2701, 6304, 6305, 5240
6265, 6307, 6308, 5238, 1915
6266, 6308, 6304, 2701, 5238
6267, 6306, 2941, 6304, 6308
6268, 2940, 6306, 6308, 6307
6269, 6155, 6311, 6309, 1943
6270, 6311, 6306, 2940, 6309
6271, 6310, 2941, 6306, 6311
6272, 2909, 6310, 6311, 6155
6273, 3149, 6312, 6153, 1871
6274, 6312, 6310, 2909, 6153
6275, 6303, 2941, 6310, 6312
6276, 2133, 6303, 6312, 3149
6277, 5903, 6315, 3529, 1854
6278, 6315, 6313, 2254, 3529
6279, 6314, 2942, 6313, 6315
6280, 2856, 6314, 6315, 5903
6281, 6054, 6317, 5915, 1898
6282, 6317, 6314, 2856, 5915
6283, 6316, 2942, 6314, 6317
6284, 2888, 6316, 6317, 6054
6285, 3506, 6319, 6052, 1832
6286, 6319, 6316, 2888, 6052
6287, 6318, 2942, 6316, 6319
6288, 2246, 6318, 6319, 3506
6289, 3521, 6320, 3504, 409
6290, 6320, 6318, 2246, 3504
6291, 6313, 2942, 6318, 6320
6292, 2254, 6313, 6320, 3521
6293, 4123, 6324, 6321, 1979
6294, 6324, 6322, 2943, 6321
6295, 6323, 2944, 6322, 6324
6296, 2423, 6323, 6324, 4123
6297, 5743, 6326, 4121, 1950
6298, 6326, 6323, 2423, 4121
6299, 6325, 2944, 6323, 6326
6300, 2817, 6325, 6326, 5743
6301, 4189, 6328, 5753, 1911
6302, 6328, 6325, 2817, 5753
6303, 6327, 2944, 6325, 6328
6304, 2442, 6327, 6328, 4189
6305, 6329, 6330, 4187, 1966
6306, 6330, 6327, 2442, 4187
6307, 6322, 2944, 6327, 6330
6308, 2943, 6322, 6330, 6329
6309, 4666, 6333, 4461, 1967
6310, 6333, 6331, 2516, 4461
6311, 6332, 2946, 6331, 6333
6312, 2568, 6332, 6333, 4666
6313, 6335, 6336, 4664, 1965
6314, 6336, 6332, 2568, 4664
6315, 6334, 2946, 6332, 6336
6316, 2945, 6334, 6336, 6335
6317, 5160, 6339, 6337, 2005
6318, 6339, 6334, 2945, 6337
6319, 6338, 2946, 6334, 6339
6320, 2682, 6338, 6339, 5160
6321, 4449, 6340, 5158, 1960
6322, 6340, 6338, 2682, 5158
6323, 6331, 2946, 6338, 6340
6324, 2516, 6331, 6340, 4449
6325, 5139, 6343, 3041, 2050
6326, 6343, 6341, 2094, 3041
6327, 6342, 2947, 6341, 6343
6328, 2680, 6342, 6343, 5139
6329, 5943, 6345, 5149, 2061
6330, 6345, 6342, 2680, 5149
6331, 6344, 2947, 6342, 6345
6332, 2863, 6344, 6345, 5943
6333, 3254, 6347, 5941, 2046
6334, 6347, 6344, 2863, 5941
6335, 6346, 2947, 6344, 6347
6336, 2164, 6346, 6347, 3254
6337, 3031, 6348, 3252, 2016
6338, 6348, 6346, 2164, 3252
6339, 6341, 2947, 6346, 6348
6340, 2094, 6341, 6348, 3031
6341, 3230, 6351, 5576, 1902
6342, 6351, 6349, 2775, 5576
6343, 6350, 2949, 6349, 6351
6344, 2156, 6350, 6351, 3230
6345, 4149, 6353, 3228, 1834
6346, 6353, 6350, 2156, 3228
6347, 6352, 2949, 6350, 6353
6348, 2430, 6352, 6353, 4149
6349, 6355, 6356, 4147, 1904
6350, 6356, 6352, 2430, 4147
6351, 6354, 2949, 6352, 6356
6352, 2948, 6354, 6356, 6355
6353, 5578, 6358, 6357, 1944
6354, 6358, 6354, 2948, 6357
6355, 6349, 2949, 6354, 6358
6356, 2775, 6349, 6358, 5578
6357, 4645, 6361, 3794, 1829
6358, 6361, 6359, 2333, 3794
6359, 6360, 2950, 6359, 6361
6360, 2563, 6360, 6361, 4645
6361, 6144, 6363, 4643, 1886
6362, 6363, 6360, 2563, 4643
6363, 6362, 2950, 6360, 6363
6364, 2906, 6362, 6363, 6144
6365, 3242, 6365, 6142, 1934
6366, 6365, 6362, 2906, 6142
6367, 6364, 2950, 6362, 6365
6368, 2160, 6364, 6365, 3242
6369, 3796, 6366, 3240, 1880
6370, 6366, 6364, 2160, 3240
6371, 6359, 2950, 6364, 6366
6372, 2333, 6359, 6366, 3796
6373, 4317, 6369, 5705, 2015
6374, 6369, 6367, 2805, 5705
6375, 6368, 2951, 6367, 6369
6376, 2476, 6368, 6369, 4317
6377, 6321, 6371, 4315, 1979
6378, 6371, 6368, 2476, 4315
6379, 6370, 2951, 6368, 6371
6380, 2943, 6370, 6371, 6321
6381, 4182, 6373, 6329, 1966
6382, 6373, 6370, 2943, 6329
6383, 6372, 2951, 6370, 6373
6384, 2439, 6372, 6373, 4182
6385, 5697, 6374, 4180, 1978
6386, 6374, 6372, 2439, 4180
6387, 6367, 2951, 6372, 6374
6388, 2805, 6367, 6374, 5697
6389, 6221, 6377, 5585, 1892
6390, 6377, 6375, 2778, 5585
6391, 6376, 2952, 6375, 6377
6392, 2922, 6376, 6377, 6221
6393, 6239, 6379, 6219, 1872
6394, 6379, 6376, 2922, 6219
6395, 6378, 2952, 6376, 6379
6396, 2926, 6378, 6379, 6239
6397, 5864, 6381, 6237, 1946
6398, 6381, 6378, 2926, 6237
6399, 6380, 2952, 6378, 6381
6400, 2842, 6380, 6381, 5864
6401, 5587, 6382, 5862, 1913
6402, 6382, 6380, 2842, 5862
6403, 6375, 2952, 6380, 6382
6404, 2778, 6375, 6382, 5587
6405, 3419, 6385, 4302, 2075
6406, 6385, 6383, 2472, 4302
6407, 6384, 2953, 6383, 6385
6408, 2222, 6384, 6385, 3419
6409, 3266, 6387, 3429, 2078
6410, 6387, 6384, 2222, 3429
6411, 6386, 2953, 6384, 6387
6412, 2168, 6386, 6387, 3266
6413, 3209, 6389, 3264, 2073
6414, 6389, 6386, 2168, 3264
6415, 6388, 2953, 6386, 6389
6416, 2153, 6388, 6389, 3209
6417, 4304, 6390, 3219, 2080
6418, 6390, 6388, 2153, 3219
6419, 6383, 2953, 6388, 6390
6420, 2472, 6383, 6390, 4304
6421, 5750, 6394, 6391, 1899
6422, 6394, 6392, 2955, 6391
6423, 6393, 2956, 6392, 6394
6424, 2816, 6393, 6394, 5750
6425, 6396, 6397, 5748, 1925
6426, 6397, 6393, 2816, 5748
6427, 6395, 2956, 6393, 6397
6428, 2954, 6395, 6397, 6396
6429, 5599, 6400, 6398, 1864
6430, 6400, 6395, 2954, 6398
6431, 6399, 2956, 6395, 6400
6432, 2781, 6399, 6400, 5599
6433, 6401, 6402, 5597, 1852
6434, 6402, 6399, 2781, 5597
6435, 6392, 2956, 6399, 6402
6436, 2955, 6392, 6402, 6401
6437, 3278, 6405, 4699, 2022
6438, 6405, 6403, 2577, 4699
6439, 6404, 2957, 6403, 6405
6440, 2172, 6404, 6405, 3278
6441, 5433, 6407, 3276, 1962
6442, 6407, 6404, 2172, 3276
6443, 6406, 2957, 6404, 6407
6444, 2747, 6406, 6407, 5433
6445, 5113, 6409, 5431, 1917
6446, 6409, 6406, 2747, 5431
6447, 6408, 2957, 6406, 6409
6448, 2672, 6408, 6409, 5113
6449, 4701, 6410, 5111, 1987
6450, 6410, 6408, 2672, 5111
6451, 6403, 2957, 6408, 6410
6452, 2577, 6403, 6410, 4701
6453, 4337, 6413, 3183, 1994
6454, 6413, 6411, 2141, 3183
6455, 6412, 2958, 6411, 6413
6456, 2485, 6412, 6413, 4337
6457, 5985, 6415, 4351, 2025
6458, 6415, 6412, 2485, 4351
6459, 6414, 2958, 6412, 6415
6460, 2874, 6414, 6415, 5985
6461, 4164, 6417, 5993, 1986
6462, 6417, 6414, 2874, 5993
6463, 6416, 2958, 6414, 6417
6464, 2434, 6416, 6417, 4164
6465, 3173, 6418, 4162, 1914
6466, 6418, 6416, 2434, 4162
6467, 6411, 2958, 6416, 6418
6468, 2141, 6411, 6418, 3173
6469, 6421, 6422, 5601, 1864
6470, 6422, 6419, 2782, 5601
6471, 6420, 2960, 6419, 6422
6472, 2959, 6420, 6422, 6421
6473, 5234, 6425, 6423, 1942
6474, 6425, 6420, 2959, 6423
6475, 6424, 2960, 6420, 6425
6476, 2700, 6424, 6425, 5234
6477, 3600, 6427, 5232, 1893
6478, 6427, 6424, 2700, 5232
6479, 6426, 2960, 6424, 6427
6480, 2277, 6426, 6427, 3600
6481, 5603, 6428, 3598, 1817
6482, 6428, 6426, 2277, 3598
6483, 6419, 2960, 6426, 6428
6484, 2782, 6419, 6428, 5603
6485, 3250, 6431, 3034, 2016
6486, 6431, 6429, 2092, 3034
6487, 6430, 2961, 6429, 6431
6488, 2163, 6430, 6431, 3250
6489, 3293, 6433, 3248, 1988
6490, 6433, 6430, 2163, 3248
6491, 6432, 2961, 6430, 6433
6492, 2181, 6432, 6433, 3293
6493, 3371, 6435, 3303, 2004
6494, 6435, 6432, 2181, 3303
6495, 6434, 2961, 6432, 6435
6496, 2206, 6434, 6435, 3371
6497, 3036, 6436, 3381, 2029
6498, 6436, 6434, 2206, 3381
6499, 6429, 2961, 6434, 6436
6500, 2092, 6429, 6436, 3036
6501, 5297, 6439, 5047, 1998
6502, 6439, 6437, 2659, 5047
6503, 6438, 2962, 6437, 6439
6504, 2717, 6438, 6439, 5297
6505, 5083, 6441, 5295, 2027
6506, 6441, 6438, 2717, 5295
6507, 6440, 2962, 6438, 6441
6508, 2666, 6440, 6441, 5083
6509, 5949, 6443, 5081, 2021
6510, 6443, 6440, 2666, 5081
6511, 6442, 2962, 6440, 6443
6512, 2864, 6442, 6443, 5949
6513, 5037, 6444, 5947, 2037
6514, 6444, 6442, 2864, 5947
6515, 6437, 2962, 6442, 6444
6516, 2659, 6437, 6444, 5037
6517, 6447, 6448, 3147, 1972
6518, 6448, 6445, 2129, 3147
6519, 6446, 2964, 6445, 6448
6520, 2963, 6446, 6448, 6447
6521, 3383, 6451, 6449, 1964
6522, 6451, 6446, 2963, 6449
6523, 6450, 2964, 6446, 6451
6524, 2210, 6450, 6451, 3383
6525, 5973, 6453, 3393, 2000
6526, 6453, 6450, 2210, 3393
6527, 6452, 2964, 6450, 6453
6528, 2872, 6452, 6453, 5973
6529, 3137, 6454, 5983, 1920
6530, 6454, 6452, 2872, 5983
6531, 6445, 2964, 6452, 6454
6532, 2129, 6445, 6454, 3137
6533, 5648, 6457, 4283, 2030
6534, 6457, 6455, 2466, 4283
6535, 6456, 2966, 6455, 6457
6536, 2792, 6456, 6457, 5648
6537, 6459, 6460, 5646, 2077
6538, 6460, 6456, 2792, 5646
6539, 6458, 2966, 6456, 6460
6540, 2965, 6458, 6460, 6459
6541, 3110, 6463, 6461, 2071
6542, 6463, 6458, 2965, 6461
6543, 6462, 2966, 6458, 6463
6544, 2116, 6462, 6463, 3110
6545, 4271, 6464, 3108, 2057
6546, 6464, 6462, 2116, 3108
6547, 6455, 2966, 6462, 6464
6548, 2466, 6455, 6464, 4271
6549, 4299, 6467, 3422, 2075
6550, 6467, 6465, 2220, 3422
6551, 6466, 2967, 6465, 6467
6552, 2474, 6466, 6467, 4299
6553, 5271, 6469, 4311, 2070
6554, 6469, 6466, 2474, 4311
6555, 6468, 2967, 6466, 6469
6556, 2710, 6468, 6469, 5271
6557, 5685, 6471, 5269, 2062
6558, 6471, 6468, 2710, 5269
6559, 6470, 2967, 6468, 6471
6560, 2801, 6470, 6471, 5685
6561, 3424, 6472, 5683, 2065
6562, 6472, 6470, 2801, 5683
6563, 6465, 2967, 6470, 6472
6564, 2220, 6465, 6472, 3424
6565, 5675, 6475, 3558, 2036
6566, 6475, 6473, 2264, 3558
6567, 6474, 2968, 6473, 6475
6568, 2799, 6474, 6475, 5675
6569, 5351, 6477, 5673, 2010
6570, 6477, 6474, 2799, 5673
6571, 6476, 2968, 6474, 6477
6572, 2729, 6476, 6477, 5351
6573, 4489, 6479, 5349, 1980
6574, 6479, 6476, 2729, 5349
6575, 6478, 2968, 6476, 6479
6576, 2524, 6478, 6479, 4489
6577, 3560, 6480, 4487, 2008
6578, 6480, 6478, 2524, 4487
6579, 6473, 2968, 6478, 6480
6580, 2264, 6473, 6480, 3560
6581, 4091, 6483, 5831, 1830
6582, 6483, 6481, 2835, 5831
6583, 6482, 2969, 6481, 6483
6584, 2418, 6482, 6483, 4091
6585, 6391, 6485, 4103, 1899
6586, 6485, 6482, 2418, 4103
6587, 6484, 2969, 6482, 6485
6588, 2955, 6484, 6485, 6391
6589, 3074, 6487, 6401, 1852
6590, 6487, 6484, 2955, 6401
6591, 6486, 2969, 6484, 6487
6592, 2104, 6486, 6487, 3074
6593, 5833, 6488, 3072, 392
6594, 6488, 6486, 2104, 3072
6595, 6481, 2969, 6486, 6488
6596, 2835, 6481, 6488, 5833
6597, 3327, 6491, 4215, 1957
6598, 6491, 6489, 2449, 4215
6599, 6490, 2971, 6489, 6491
6600, 2192, 6490, 6491, 3327
6601, 6493, 6494, 3337, 2003
6602, 6494, 6490, 2192, 3337
6603, 6492, 2971, 6490, 6494
6604, 2970, 6492, 6494, 6493
6605, 4424, 6497, 6495, 1976
6606, 6497, 6492, 2970, 6495
6607, 6496, 2971, 6492, 6497
6608, 2505, 6496, 6497, 4424
6609, 4217, 6498, 4422, 1909
6610, 6498, 6496, 2505, 4422
6611, 6489, 2971, 6496, 6498
6612, 2449, 6489, 6498, 4217
6613, 6253, 6501, 6205, 1849
6614, 6501, 6499, 2919, 6205
6615, 6500, 2972, 6499, 6501
6616, 2931, 6500, 6501, 6253
6617, 378, 6503, 6263, 23
6618, 6503, 6500, 2931, 6263
6619, 6502, 2972, 6500, 6503
6620, 377, 6502, 6503, 378
6621, 6187, 6505, 376, 24
6622, 6505, 6502, 377, 376
6623, 6504, 2972, 6502, 6505
6624, 2916, 6504, 6505, 6187
6625, 6207, 6506, 6185, 1856
6626, 6506, 6504, 2916, 6185
6627, 6499, 2972, 6504, 6506
6628, 2919, 6499, 6506, 6207
6629, 357, 6509, 6177, 15
6630, 6509, 6507, 2914, 6177
6631, 6508, 2973, 6507, 6509
6632, 356, 6508, 6509, 357
6633, 6251, 6511, 355, 16
6634, 6511, 6508, 356, 355
6635, 6510, 2973, 6508, 6511
6636, 2928, 6510, 6511, 6251
6637, 6215, 6513, 6249, 1848
6638, 6513, 6510, 2928, 6249
6639, 6512, 2973, 6510, 6513
6640, 2921, 6512, 6513, 6215
6641, 6179, 6514, 6213, 1855
6642, 6514, 6512, 2921, 6213
6643, 6507, 2973, 6512, 6514
6644, 2914, 6507, 6514, 6179
6645, 4342, 6517, 4297, 1969
6646, 6517, 6515, 2470, 4297
6647, 6516, 2975, 6515, 6517
6648, 2482, 6516, 6517, 4342
6649, 3182, 6519, 4340, 1994
6650, 6519, 6516, 2482, 4340
6651, 6518, 2975, 6516, 6519
6652, 2140, 6518, 6519, 3182
6653, 6521, 6522, 3180, 1970
6654, 6522, 6518, 2140, 3180
6655, 6520, 2975, 6518, 6522
6656, 2974, 6520, 6522, 6521
6657, 4285, 6524, 6523, 1921
6658, 6524, 6520, 2974, 6523
6659, 6515, 2975, 6520, 6524
6660, 2470, 6515, 6524, 4285
6661, 3233, 6527, 5617, 1930
6662, 6527, 6525, 2785, 5617
6663, 6526, 2976, 6525, 6527
6664, 2161, 6526, 6527, 3233
6665, 6139, 6529, 3243, 1934
6666, 6529, 6526, 2161, 3243
6667, 6528, 2976, 6526, 6529
6668, 2907, 6528, 6529, 6139
6669, 6523, 6531, 6149, 1921
6670, 6531, 6528, 2907, 6149
6671, 6530, 2976, 6528, 6531
6672, 2974, 6530, 6531, 6523
6673, 5607, 6532, 6521, 1970
6674, 6532, 6530, 2974, 6521
6675, 6525, 2976, 6530, 6532
6676, 2785, 6525, 6532, 5607
6677, 6535, 6536, 5869, 2020
6678, 6536, 6533, 2845, 5869
6679, 6534, 2978, 6533, 6536
6680, 2977, 6534, 6536, 6535
6681, 3336, 6539, 6537, 2003
6682, 6539, 6534, 2977, 6537
6683, 6538, 2978, 6534, 6539
6684, 2191, 6538, 6539, 3336
6685, 5355, 6541, 3334, 1991
6686, 6541, 6538, 2191, 3334
6687, 6540, 2978, 6538, 6541
6688, 2730, 6540, 6541, 5355
6689, 5871, 6542, 5353, 2010
6690, 6542, 6540, 2730, 5353
6691, 6533, 2978, 6540, 6542
6692, 2845, 6533, 6542, 5871
6693, 5860, 6545, 5589, 1913
6694, 6545, 6543, 2779, 5589
6695, 6544, 2979, 6543, 6545
6696, 2841, 6544, 6545, 5860
6697, 3302, 6547, 5858, 2004
6698, 6547, 6544, 2841, 5858
6699, 6546, 2979, 6544, 6547
6700, 2180, 6546, 6547, 3302
6701, 4438, 6549, 3300, 1968
6702, 6549, 6546, 2180, 3300
6703, 6548, 2979, 6546, 6549
6704, 2509, 6548, 6549, 4438
6705, 5591, 6550, 4436, 1865
6706, 6550, 6548, 2509, 4436
6707, 6543, 2979, 6548, 6550
6708, 2779, 6543, 6550, 5591
6709, 5652, 6553, 5759, 2013
6710, 6553, 6551, 2819, 5759
6711, 6552, 2980, 6551, 6553
6712, 2793, 6552, 6553, 5652
6713, 4282, 6555, 5650, 2030
6714, 6555, 6552, 2793, 5650
6715, 6554, 2980, 6552, 6555
6716, 2465, 6554, 6555, 4282
6717, 6296, 6557, 4280, 2028
6718, 6557, 6554, 2465, 4280
6719, 6556, 2980, 6554, 6557
6720, 2937, 6556, 6557, 6296
6721, 5761, 6558, 6294, 1999
6722, 6558, 6556, 2937, 6294
6723, 6551, 2980, 6556, 6558
6724, 2819, 6551, 6558, 5761
6725, 3428, 6561, 3267, 2078
6726, 6561, 6559, 2169, 3267
6727, 6560, 2981, 6559, 6561
6728, 2221, 6560, 6561, 3428
6729, 4625, 6563, 3426, 2065
6730, 6563, 6560, 2221, 3426
6731, 6562, 2981, 6560, 6563
6732, 2558, 6562, 6563, 4625
6733, 4543, 6565, 4623, 2066
6734, 6565, 6562, 2558, 4623
6735, 6564, 2981, 6562, 6565
6736, 2540, 6564, 6565, 4543
6737, 3257, 6566, 4551, 2052
6738, 6566, 6564, 2540, 4551
6739, 6559, 2981, 6564, 6566
6740, 2169, 6559, 6566, 3257
6741, 5877, 6569, 5581, 1903
6742, 6569, 6567, 2776, 5581
6743, 6568, 2982, 6567, 6569
6744, 2847, 6568, 6569, 5877
6745, 363, 6571, 5885, 17
6746, 6571, 6568, 2847, 5885
6747, 6570, 2982, 6568, 6571
6748, 362, 6570, 6571, 363
6749, 4910, 6573, 361, 18
6750, 6573, 6570, 362, 361
6751, 6572, 2982, 6570, 6573
6752, 2628, 6572, 6573, 4910
6753, 5571, 6574, 4908, 1833
6754, 6574, 6572, 2628, 4908
6755, 6567, 2982, 6572, 6574
6756, 2776, 6567, 6574, 5571
6757, 4026, 6577, 3582, 1940
6758, 6577, 6575, 2272, 3582
6759, 6576, 2983, 6575, 6577
6760, 2397, 6576, 6577, 4026
6761, 5917, 6579, 4024, 1875
6762, 6579, 6576, 2397, 4024
6763, 6578, 2983, 6576, 6579
6764, 2859, 6578, 6579, 5917
6765, 2997, 6581, 5927, 1821
6766, 6581, 6578, 2859, 5927
6767, 6580, 2983, 6578, 6581
6768, 2083, 6580, 6581, 2997
6769, 3584, 6582, 3007, 2002
6770, 6582, 6580, 2083, 3007
6771, 6575, 2983, 6580, 6582
6772, 2272, 6575, 6582, 3584
6773, 3101, 6585, 3732, 2063
6774, 6585, 6583, 2316, 3732
6775, 6584, 2985, 6583, 6585
6776, 2117, 6584, 6585, 3101
6777, 6587, 6588, 3111, 2071
6778, 6588, 6584, 2117, 3111
6779, 6586, 2985, 6584, 6588
6780, 2984, 6586, 6588, 6587
6781, 5787, 6591, 6589, 2074
6782, 6591, 6586, 2984, 6589
6783, 6590, 2985, 6586, 6591
6784, 2825, 6590, 6591, 5787
6785, 3734, 6592, 5785, 2068
6786, 6592, 6590, 2825, 5785
6787, 6583, 2985, 6590, 6592
6788, 2316, 6583, 6592, 3734
6789, 375, 6595, 4143, 22
6790, 6595, 6593, 2429, 4143
6791, 6594, 2986, 6593, 6595
6792, 374, 6594, 6595, 375
6793, 6262, 6597, 373, 23
6794, 6597, 6594, 374, 373
6795, 6596, 2986, 6594, 6597
6796, 2930, 6596, 6597, 6262
6797, 5896, 6599, 6260, 1824
6798, 6599, 6596, 2930, 6260
6799, 6598, 2986, 6596, 6599
6800, 2850, 6598, 6599, 5896
6801, 4145, 6600, 5894, 1904
6802, 6600, 6598, 2850, 5894
6803, 6593, 2986, 6598, 6600
6804, 2429, 6593, 6600, 4145
6805, 4985, 6603, 6396, 1925
6806, 6603, 6601, 2954, 6396
6807, 6602, 2987, 6601, 6603
6808, 2645, 6602, 6603, 4985
6809, 3064, 6605, 4983, 1955
6810, 6605, 6602, 2645, 4983
6811, 6604, 2987, 6602, 6605
6812, 2101, 6604, 6605, 3064
6813, 6423, 6607, 3062, 1942
6814, 6607, 6604, 2101, 3062
6815, 6606, 2987, 6604, 6607
6816, 2959, 6606, 6607, 6423
6817, 6398, 6608, 6421, 1864
6818, 6608, 6606, 2959, 6421
6819, 6601, 2987, 6606, 6608
6820, 2954, 6601, 6608, 6398
6821, 5211, 6611, 5642, 2045
6822, 6611, 6609, 2791, 5642
6823, 6610, 2989, 6609, 6611
6824, 2694, 6610, 6611, 5211
6825, 4509, 6613, 5209, 2039
6826, 6613, 6610, 2694, 5209
6827, 6612, 2989, 6610, 6613
6828, 2529, 6612, 6613, 4509
6829, 6615, 6616, 4507, 2056
6830, 6616, 6612, 2529, 4507
6831, 6614, 2989, 6612, 6616
6832, 2988, 6614, 6616, 6615
6833, 5644, 6618, 6617, 2077
6834, 6618, 6614, 2988, 6617
6835, 6609, 2989, 6614, 6618
6836, 2791, 6609, 6618, 5644
6837, 4515, 6621, 5959, 2048
6838, 6621, 6619, 2866, 5959
6839, 6620, 2990, 6619, 6621
6840, 2534, 6620, 6621, 4515
6841, 5151, 6623, 4527, 2024
6842, 6623, 6620, 2534, 4527
6843, 6622, 2990, 6620, 6623
6844, 2683, 6622, 6623, 5151
6845, 6337, 6625, 5161, 2005
6846, 6625, 6622, 2683, 5161
6847, 6624, 2990, 6622, 6625
6848, 2945, 6624, 6625, 6337
6849, 5951, 6626, 6335, 1965
6850, 6626, 6624, 2945, 6335
6851, 6619, 2990, 6624, 6626
6852, 2866, 6619, 6626, 5951
6853, 6223, 6629, 5890, 1929
6854, 6629, 6627, 2849, 5890
6855, 6628, 2991, 6627, 6629
6856, 2924, 6628, 6629, 6223
6857, 3197, 6631, 6231, 1923
6858, 6631, 6628, 2924, 6231
6859, 6630, 2991, 6628, 6631
6860, 2149, 6630, 6631, 3197
6861, 6357, 6633, 3207, 1944
6862, 6633, 6630, 2149, 3207
6863, 6632, 2991, 6630, 6633
6864, 2948, 6632, 6633, 6357
6865, 5892, 6634, 6355, 1904
6866, 6634, 6632, 2948, 6355
6867, 6627, 2991, 6632, 6634
6868, 2849, 6627, 6634, 5892
6869, 5633, 6637, 3746, 1995
6870, 6637, 6635, 2320, 3746
6871, 6636, 2992, 6635, 6637
6872, 2789, 6636, 6637, 5633
6873, 6495, 6639, 5631, 1976
6874, 6639, 6636, 2789, 5631
6875, 6638, 2992, 6636, 6639
6876, 2970, 6638, 6639, 6495
6877, 6537, 6641, 6493, 2003
6878, 6641, 6638, 2970, 6493
6879, 6640, 2992, 6638, 6641
6880, 2977, 6640, 6641, 6537
6881, 3748, 6642, 6535, 2020
6882, 6642, 6640, 2977, 6535
6883, 6635, 2992, 6640, 6642
6884, 2320, 6635, 6642, 3748
6885, 6309, 6645, 6157, 1943
6886, 6645, 6643, 2910, 6157
6887, 6644, 2993, 6643, 6645
6888, 2940, 6644, 6645, 6309
6889, 4893, 6647, 6307, 1915
6890, 6647, 6644, 2940, 6307
6891, 6646, 2993, 6644, 6647
6892, 2624, 6646, 6647, 4893
6893, 6449, 6649, 4891, 1964
6894, 6649, 6646, 2624, 4891
6895, 6648, 2993, 6646, 6649
6896, 2963, 6648, 6649, 6449
6897, 6159, 6650, 6447, 1972
6898, 6650, 6648, 2963, 6447
6899, 6643, 2993, 6648, 6650
6900, 2910, 6643, 6650, 6159
6901, 6617, 6653, 6459, 2077
6902, 6653, 6651, 2965, 6459
6903, 6652, 2994, 6651, 6653
6904, 2988, 6652, 6653, 6617
6905, 3874, 6655, 6615, 2056
6906, 6655, 6652, 2988, 6615
6907, 6654, 2994, 6652, 6655
6908, 2356, 6654, 6655, 3874
6909, 6589, 6657, 3872, 2074
6910, 6657, 6654, 2356, 3872
6911, 6656, 2994, 6654, 6657
6912, 2984, 6656, 6657, 6589
6913, 6461, 6658, 6587, 2071
6914, 6658, 6656, 2984, 6587
6915, 6651, 2994, 6656, 6658
6916, 2965, 6651, 6658, 6461
6917, 4419, 6661, 4219, 1909
6918, 6661, 6659, 2450, 4219
6919, 6660, 2995, 6659, 6661
6920, 2507, 6660, 6661, 4419
6921, 6058, 6663, 4431, 1862
6922, 6663, 6660, 2507, 4431
6923, 6662, 2995, 6660, 6663
6924, 2889, 6662, 6663, 6058
6925, 5914, 6665, 6056, 1898
6926, 6665, 6662, 2889, 6056
6927, 6664, 2995, 6662, 6665
6928, 2855, 6664, 6665, 5914
6929, 4221, 6666, 5912, 1896
6930, 6666, 6664, 2855, 5912
6931, 6659, 2995, 6664, 6666
6932, 2450, 6659, 6666, 4221
6933, 6291, 6669, 5763, 1999
6934, 6669, 6667, 2820, 5763
6935, 6668, 2996, 6667, 6669
6936, 2938, 6668, 6669, 6291
6937, 5724, 6671, 6301, 1939
6938, 6671, 6668, 2938, 6301
6939, 6670, 2996, 6668, 6671
6940, 2809, 6670, 6671, 5724
6941, 6269, 6673, 5722, 1977
6942, 6673, 6670, 2809, 5722
6943, 6672, 2996, 6670, 6673
6944, 2933, 6672, 6673, 6269
6945, 5765, 6674, 6267, 1973
6946, 6674, 6672, 2933, 6267
6947, 6667, 2996, 6672, 6674
6948, 2820, 6667, 6674, 5765
6949, 6842, 6843, 480, 479
6950, 6843, 6840, 481, 480
6951, 6841, 6710, 6840, 6843
6952, 6707, 6841, 6843, 6842
6953, 6846, 6847, 6844, 6692
6954, 6847, 6841, 6707, 6844
6955, 6845, 6710, 6841, 6847
6956, 6708, 6845, 6847, 6846
6957, 6850, 6851, 6848, 6682
6958, 6851, 6845, 6708, 6848
6959, 6849, 6710, 6845, 6851
6960, 6709, 6849, 6851, 6850
6961, 482, 6853, 6852, 483
6962, 6853, 6849, 6709, 6852
6963, 6840, 6710, 6849, 6853
6964, 481, 6840, 6853, 482
6965, 6857, 6858, 6854, 6675
6966, 6858, 6855, 6712, 6854
6967, 6856, 6713, 6855, 6858
6968, 6711, 6856, 6858, 6857
6969, 486, 6861, 6859, 487
6970, 6861, 6856, 6711, 6859
6971, 6860, 6713, 6856, 6861
6972, 485, 6860, 6861, 486
6973, 6852, 6863, 484, 483
6974, 6863, 6860, 485, 484
6975, 6862, 6713, 6860, 6863
6976, 6709, 6862, 6863, 6852
6977, 6864, 6865, 6850, 6682
6978, 6865, 6862, 6709, 6850
6979, 6855, 6713, 6862, 6865
6980, 6712, 6855, 6865, 6864
6981, 498, 6869, 6866, 499
6982, 6869, 6867, 6716, 6866
6983, 6868, 6717, 6867, 6869
6984, 497, 6868, 6869, 498
6985, 6871, 6872, 496, 495
6986, 6872, 6868, 497, 496
6987, 6870, 6717, 6868, 6872
6988, 6714, 6870, 6872, 6871
6989, 6875, 6876, 6873, 6684
6990, 6876, 6870, 6714, 6873
6991, 6874, 6717, 6870, 6876
6992, 6715, 6874, 6876, 6875
6993, 6878, 6879, 6877, 6700
6994, 6879, 6874, 6715, 6877
6995, 6867, 6717, 6874, 6879
6996, 6716, 6867, 6879, 6878
6997, 6883, 6884, 6880, 6686
6998, 6884, 6881, 6720, 6880
6999, 6882, 6721, 6881, 6884
7000, 6718, 6882, 6884, 6883
7001, 565, 6887, 6885, 566
7002, 6887, 6882, 6718, 6885
7003, 6886, 6721, 6882, 6887
7004, 564, 6886, 6887, 565
7005, 6889, 6890, 563, 562
7006, 6890, 6886, 564, 563
7007, 6888, 6721, 6886, 6890
7008, 6719, 6888, 6890, 6889
7009, 6892, 6893, 6891, 6693
7010, 6893, 6888, 6719, 6891
7011, 6881, 6721, 6888, 6893
7012, 6720, 6881, 6893, 6892
7013, 6897, 6898, 6894, 6704
7014, 6898, 6895, 6724, 6894
7015, 6896, 6725, 6895, 6898
7016, 6722, 6896, 6898, 6897
7017, 506, 6901, 6899, 507
7018, 6901, 6896, 6722, 6899
7019, 6900, 6725, 6896, 6901
7020, 505, 6900, 6901, 506
7021, 6903, 6904, 504, 503
7022, 6904, 6900, 505, 504
7023, 6902, 6725, 6900, 6904
7024, 6723, 6902, 6904, 6903
7025, 6906, 6907, 6905, 6685
7026, 6907, 6902, 6723, 6905
7027, 6895, 6725, 6902, 6907
7028, 6724, 6895, 6907, 6906
7029, 6911, 6912, 6908, 6688
7030, 6912, 6909, 6728, 6908
7031, 6910, 6729, 6909, 6912
7032, 6726, 6910, 6912, 6911
7033, 545, 6915, 6913, 546
7034, 6915, 6910, 6726, 6913
7035, 6914, 6729, 6910, 6915
7036, 544, 6914, 6915, 545
7037, 6917, 6918, 543, 542
7038, 6918, 6914, 544, 543
7039, 6916, 6729, 6914, 6918
7040, 6727, 6916, 6918, 6917
7041, 6920, 6921, 6919, 6701
7042, 6921, 6916, 6727, 6919
7043, 6909, 6729, 6916, 6921
7044, 6728, 6909, 6921, 6920
7045, 6925, 6926, 6922, 6677
7046, 6926, 6923, 6731, 6922
7047, 6924, 6732, 6923, 6926
7048, 6730, 6924, 6926, 6925
7049, 6919, 6929, 6927, 6701
7050, 6929, 6924, 6730, 6927
7051, 6928, 6732, 6924, 6929
7052, 6727, 6928, 6929, 6919
7053, 541, 6931, 6917, 542
7054, 6931, 6928, 6727, 6917
7055, 6930, 6732, 6928, 6931
7056, 540, 6930, 6931, 541
7057, 6932, 6933, 539, 538
7058, 6933, 6930, 540, 539
7059, 6923, 6732, 6930, 6933
7060, 6731, 6923, 6933, 6932
7061, 6937, 6938, 6934, 6676
7062, 6938, 6935, 6735, 6934
7063, 6936, 6736, 6935, 6938
7064, 6733, 6936, 6938, 6937
7065, 470, 6941, 6939, 471
7066, 6941, 6936, 6733, 6939
7067, 6940, 6736, 6936, 6941
7068, 469, 6940, 6941, 470
7069, 6943, 6944, 468, 467
7070, 6944, 6940, 469, 468
7071, 6942, 6736, 6940, 6944
7072, 6734, 6942, 6944, 6943
7073, 6946, 6947, 6945, 6705
7074, 6947, 6942, 6734, 6945
7075, 6935, 6736, 6942, 6947
7076, 6735, 6935, 6947, 6946
7077, 6950, 6951, 464, 463
7078, 6951, 6948, 465, 464
7079, 6949, 6739, 6948, 6951
7080, 6737, 6949, 6951, 6950
7081, 6954, 6955, 6952, 6678
7082, 6955, 6949, 6737, 6952
7083, 6953, 6739, 6949, 6955
7084, 6738, 6953, 6955, 6954
7085, 6945, 6958, 6956, 6705
7086, 6958, 6953, 6738, 6956
7087, 6957, 6739, 6953, 6958
7088, 6734, 6957, 6958, 6945
7089, 466, 6959, 6943, 467
7090, 6959, 6957, 6734, 6943
7091, 6948, 6739, 6957, 6959
7092, 465, 6948, 6959, 466
7093, 6963, 6964, 6960, 6691
7094, 6964, 6961, 6741, 6960
7095, 6962, 6742, 6961, 6964
7096, 6740, 6962, 6964, 6963
7097, 6952, 6967, 6965, 6678
7098, 6967, 6962, 6740, 6965
7099, 6966, 6742, 6962, 6967
7100, 6737, 6966, 6967, 6952
7101, 462, 6969, 6950, 463
7102, 6969, 6966, 6737, 6950
7103, 6968, 6742, 6966, 6969
7104, 461, 6968, 6969, 462
7105, 6970, 6971, 460, 459
7106, 6971, 6968, 461, 460
7107, 6961, 6742, 6968, 6971
7108, 6741, 6961, 6971, 6970
7109, 6975, 6976, 6972, 6677
7110, 6976, 6973, 6746, 6972
7111, 6974, 6747, 6973, 6976
7112, 6743, 6974, 6976, 6975
7113, 6979, 6980, 6977, 6687
7114, 6980, 6974, 6743, 6977
7115, 6978, 6747, 6974, 6980
7116, 6744, 6978, 6980, 6979
7117, 6983, 6984, 6981, 6685
7118, 6984, 6978, 6744, 6981
7119, 6982, 6747, 6978, 6984
7120, 6745, 6982, 6984, 6983
7121, 6986, 6987, 6985, 6700
7122, 6987, 6982, 6745, 6985
7123, 6973, 6747, 6982, 6987
7124, 6746, 6973, 6987, 6986
7125, 502, 6990, 6903, 503
7126, 6990, 6988, 6723, 6903
7127, 6989, 6748, 6988, 6990
7128, 501, 6989, 6990, 502
7129, 6866, 6992, 500, 499
7130, 6992, 6989, 501, 500
7131, 6991, 6748, 6989, 6992
7132, 6716, 6991, 6992, 6866
7133, 6985, 6994, 6878, 6700
7134, 6994, 6991, 6716, 6878
7135, 6993, 6748, 6991, 6994
7136, 6745, 6993, 6994, 6985
7137, 6905, 6995, 6983, 6685
7138, 6995, 6993, 6745, 6983
7139, 6988, 6748, 6993, 6995
7140, 6723, 6988, 6995, 6905
7141, 6899, 6998, 508, 507
7142, 6998, 6996, 509, 508
7143, 6997, 6751, 6996, 6998
7144, 6722, 6997, 6998, 6899
7145, 7000, 7001, 6897, 6704
7146, 7001, 6997, 6722, 6897
7147, 6999, 6751, 6997, 7001
7148, 6749, 6999, 7001, 7000
7149, 7004, 7005, 7002, 6679
7150, 7005, 6999, 6749, 7002
7151, 7003, 6751, 6999, 7005
7152, 6750, 7003, 7005, 7004
7153, 510, 7007, 7006, 511
7154, 7007, 7003, 6750, 7006
7155, 6996, 6751, 7003, 7007
7156, 509, 6996, 7007, 510
7157, 6922, 7010, 6975, 6677
7158, 7010, 7008, 6743, 6975
7159, 7009, 6753, 7008, 7010
7160, 6731, 7009, 7010, 6922
7161, 537, 7012, 6932, 538
7162, 7012, 7009, 6731, 6932
7163, 7011, 6753, 7009, 7012
7164, 536, 7011, 7012, 537
7165, 7014, 7015, 535, 534
7166, 7015, 7011, 536, 535
7167, 7013, 6753, 7011, 7015
7168, 6752, 7013, 7015, 7014
7169, 6977, 7017, 7016, 6687
7170, 7017, 7013, 6752, 7016
7171, 7008, 6753, 7013, 7017
7172, 6743, 7008, 7017, 6977
7173, 6877, 7020, 6986, 6700
7174, 7020, 7018, 6746, 6986
7175, 7019, 6755, 7018, 7020
7176, 6715, 7019, 7020, 6877
7177, 7022, 7023, 6875, 6684
7178, 7023, 7019, 6715, 6875
7179, 7021, 6755, 7019, 7023
7180, 6754, 7021, 7023, 7022
7181, 6927, 7026, 7024, 6701
7182, 7026, 7021, 6754, 7024
7183, 7025, 6755, 7021, 7026
7184, 6730, 7025, 7026, 6927
7185, 6972, 7027, 6925, 6677
7186, 7027, 7025, 6730, 6925
7187, 7018, 6755, 7025, 7027
7188, 6746, 7018, 7027, 6972
7189, 6960, 7031, 7028, 6691
7190, 7031, 7029, 6757, 7028
7191, 7030, 6758, 7029, 7031
7192, 6741, 7030, 7031, 6960
7193, 458, 7033, 6970, 459
7194, 7033, 7030, 6741, 6970
7195, 7032, 6758, 7030, 7033
7196, 457, 7032, 7033, 458
7197, 7035, 7036, 456, 455
7198, 7036, 7032, 457, 456
7199, 7034, 6758, 7032, 7036
7200, 6756, 7034, 7036, 7035
7201, 7038, 7039, 7037, 6696
7202, 7039, 7034, 6756, 7037
7203, 7029, 6758, 7034, 7039
7204, 6757, 7029, 7039, 7038
7205, 7043, 7044, 7040, 6689
7206, 7044, 7041, 6762, 7040
7207, 7042, 6763, 7041, 7044
7208, 6759, 7042, 7044, 7043
7209, 7047, 7048, 7045, 6695
7210, 7048, 7042, 6759, 7045
7211, 7046, 6763, 7042, 7048
7212, 6760, 7046, 7048, 7047
7213, 7051, 7052, 7049, 6694
7214, 7052, 7046, 6760, 7049
7215, 7050, 6763, 7046, 7052
7216, 6761, 7050, 7052, 7051
7217, 7054, 7055, 7053, 6679
7218, 7055, 7050, 6761, 7053
7219, 7041, 6763, 7050, 7055
7220, 6762, 7041, 7055, 7054
7221, 514, 7059, 7056, 515
7222, 7059, 7057, 6764, 7056
7223, 7058, 6765, 7057, 7059
7224, 513, 7058, 7059, 514
7225, 7006, 7061, 512, 511
7226, 7061, 7058, 513, 512
7227, 7060, 6765, 7058, 7061
7228, 6750, 7060, 7061, 7006
7229, 7053, 7063, 7004, 6679
7230, 7063, 7060, 6750, 7004
7231, 7062, 6765, 7060, 7063
7232, 6761, 7062, 7063, 7053
7233, 7064, 7065, 7051, 6694
7234, 7065, 7062, 6761, 7051
7235, 7057, 6765, 7062, 7065
7236, 6764, 7057, 7065, 7064
7237, 7068, 7069, 7043, 6689
7238, 7069, 7066, 6759, 7043
7239, 7067, 6768, 7066, 7069
7240, 6766, 7067, 7069, 7068
7241, 525, 7072, 7070, 526
7242, 7072, 7067, 6766, 7070
7243, 7071, 6768, 7067, 7072
7244, 524, 7071, 7072, 525
7245, 7074, 7075, 523, 522
7246, 7075, 7071, 524, 523
7247, 7073, 6768, 7071, 7075
7248, 6767, 7073, 7075, 7074
7249, 7045, 7077, 7076, 6695
7250, 7077, 7073, 6767, 7076
7251, 7066, 6768, 7073, 7077
7252, 6759, 7066, 7077, 7045
7253, 135, 7081, 7078, 134
7254, 7081, 7079, 6771, 7078
7255, 7080, 6772, 7079, 7081
7256, 136, 7080, 7081, 135
7257, 7083, 7084, 137, 138
7258, 7084, 7080, 136, 137
7259, 7082, 6772, 7080, 7084
7260, 6769, 7082, 7084, 7083
7261, 7087, 7088, 7085, 6680
7262, 7088, 7082, 6769, 7085
7263, 7086, 6772, 7082, 7088
7264, 6770, 7086, 7088, 7087
7265, 7090, 7091, 7089, 6696
7266, 7091, 7086, 6770, 7089
7267, 7079, 6772, 7086, 7091
7268, 6771, 7079, 7091, 7090
7269, 518, 7094, 120, 19
7270, 7094, 7092, 121, 120
7271, 7093, 6774, 7092, 7094
7272, 517, 7093, 7094, 518
7273, 7056, 7096, 516, 515
7274, 7096, 7093, 517, 516
7275, 7095, 6774, 7093, 7096
7276, 6764, 7095, 7096, 7056
7277, 7098, 7099, 7064, 6694
7278, 7099, 7095, 6764, 7064
7279, 7097, 6774, 7095, 7099
7280, 6773, 7097, 7099, 7098
7281, 122, 7101, 7100, 123
7282, 7101, 7097, 6773, 7100
7283, 7092, 6774, 7097, 7101
7284, 121, 7092, 7101, 122
7285, 7037, 7104, 7090, 6696
7286, 7104, 7102, 6771, 7090
7287, 7103, 6775, 7102, 7104
7288, 6756, 7103, 7104, 7037
7289, 454, 7106, 7035, 455
7290, 7106, 7103, 6756, 7035
7291, 7105, 6775, 7103, 7106
7292, 453, 7105, 7106, 454
7293, 131, 7108, 452, 35
7294, 7108, 7105, 453, 452
7295, 7107, 6775, 7105, 7108
7296, 132, 7107, 7108, 131
7297, 7078, 7109, 133, 134
7298, 7109, 7107, 132, 133
7299, 7102, 6775, 7107, 7109
7300, 6771, 7102, 7109, 7078
7301, 7076, 7113, 7110, 6695
7302, 7113, 7111, 6776, 7110
7303, 7112, 6777, 7111, 7113
7304, 6767, 7112, 7113, 7076
7305, 521, 7115, 7074, 522
7306, 7115, 7112, 6767, 7074
7307, 7114, 6777, 7112, 7115
7308, 520, 7114, 7115, 521
7309, 130, 7117, 519, 21
7310, 7117, 7114, 520, 519
7311, 7116, 6777, 7114, 7117
7312, 129, 7116, 7117, 130
7313, 7118, 7119, 128, 127
7314, 7119, 7116, 129, 128
7315, 7111, 6777, 7116, 7119
7316, 6776, 7111, 7119, 7118
7317, 7110, 7122, 7047, 6695
7318, 7122, 7120, 6760, 7047
7319, 7121, 6778, 7120, 7122
7320, 6776, 7121, 7122, 7110
7321, 126, 7124, 7118, 127
7322, 7124, 7121, 6776, 7118
7323, 7123, 6778, 7121, 7124
7324, 125, 7123, 7124, 126
7325, 7100, 7126, 124, 123
7326, 7126, 7123, 125, 124
7327, 7125, 6778, 7123, 7126
7328, 6773, 7125, 7126, 7100
7329, 7049, 7127, 7098, 6694
7330, 7127, 7125, 6773, 7098
7331, 7120, 6778, 7125, 7127
7332, 6760, 7120, 7127, 7049
7333, 7130, 7131, 583, 582
7334, 7131, 7128, 584, 583
7335, 7129, 6780, 7128, 7131
7336, 6779, 7129, 7131, 7130
7337, 7085, 7134, 7132, 6680
7338, 7134, 7129, 6779, 7132
7339, 7133, 6780, 7129, 7134
7340, 6769, 7133, 7134, 7085
7341, 139, 7136, 7083, 138
7342, 7136, 7133, 6769, 7083
7343, 7135, 6780, 7133, 7136
7344, 140, 7135, 7136, 139
7345, 585, 7137, 141, 36
7346, 7137, 7135, 140, 141
7347, 7128, 6780, 7135, 7137
7348, 584, 7128, 7137, 585
7349, 7140, 7141, 575, 574
7350, 7141, 7138, 576, 575
7351, 7139, 6784, 7138, 7141
7352, 6781, 7139, 7141, 7140
7353, 7144, 7145, 7142, 6690
7354, 7145, 7139, 6781, 7142
7355, 7143, 6784, 7139, 7145
7356, 6782, 7143, 7145, 7144
7357, 7148, 7149, 7146, 6706
7358, 7149, 7143, 6782, 7146
7359, 7147, 6784, 7143, 7149
7360, 6783, 7147, 7149, 7148
7361, 577, 7151, 7150, 578
7362, 7151, 7147, 6783, 7150
7363, 7138, 6784, 7147, 7151
7364, 576, 7138, 7151, 577
7365, 7150, 7154, 579, 578
7366, 7154, 7152, 580, 579
7367, 7153, 6786, 7152, 7154
7368, 6783, 7153, 7154, 7150
7369, 7156, 7157, 7148, 6706
7370, 7157, 7153, 6783, 7148
7371, 7155, 6786, 7153, 7157
7372, 6785, 7155, 7157, 7156
7373, 7132, 7160, 7158, 6680
7374, 7160, 7155, 6785, 7158
7375, 7159, 6786, 7155, 7160
7376, 6779, 7159, 7160, 7132
7377, 581, 7161, 7130, 582
7378, 7161, 7159, 6779, 7130
7379, 7152, 6786, 7159, 7161
7380, 580, 7152, 7161, 581
7381, 6965, 7165, 7162, 6678
7382, 7165, 7163, 6788, 7162
7383, 7164, 6789, 7163, 7165
7384, 6740, 7164, 7165, 6965
7385, 7167, 7168, 6963, 6691
7386, 7168, 7164, 6740, 6963
7387, 7166, 6789, 7164, 7168
7388, 6787, 7166, 7168, 7167
7389, 7146, 7171, 7169, 6706
7390, 7171, 7166, 6787, 7169
7391, 7170, 6789, 7166, 7171
7392, 6782, 7170, 7171, 7146
7393, 7172, 7173, 7144, 6690
7394, 7173, 7170, 6782, 7144
7395, 7163, 6789, 7170, 7173
7396, 6788, 7163, 7173, 7172
7397, 7028, 7176, 7167, 6691
7398, 7176, 7174, 6787, 7167
7399, 7175, 6790, 7174, 7176
7400, 6757, 7175, 7176, 7028
7401, 7089, 7178, 7038, 6696
7402, 7178, 7175, 6757, 7038
7403, 7177, 6790, 7175, 7178
7404, 6770, 7177, 7178, 7089
7405, 7158, 7180, 7087, 6680
7406, 7180, 7177, 6770, 7087
7407, 7179, 6790, 7177, 7180
7408, 6785, 7179, 7180, 7158
7409, 7169, 7181, 7156, 6706
7410, 7181, 7179, 6785, 7156
7411, 7174, 6790, 7179, 7181
7412, 6787, 7174, 7181, 7169
7413, 7002, 7184, 7054, 6679
7414, 7184, 7182, 6762, 7054
7415, 7183, 6793, 7182, 7184
7416, 6749, 7183, 7184, 7002
7417, 7186, 7187, 7000, 6704
7418, 7187, 7183, 6749, 7000
7419, 7185, 6793, 7183, 7187
7420, 6791, 7185, 7187, 7186
7421, 7190, 7191, 7188, 6703
7422, 7191, 7185, 6791, 7188
7423, 7189, 6793, 7185, 7191
7424, 6792, 7189, 7191, 7190
7425, 7040, 7193, 7192, 6689
7426, 7193, 7189, 6792, 7192
7427, 7182, 6793, 7189, 7193
7428, 6762, 7182, 7193, 7040
7429, 7197, 7198, 7194, 6702
7430, 7198, 7195, 6795, 7194
7431, 7196, 6796, 7195, 7198
7432, 6794, 7196, 7198, 7197
7433, 6956, 7201, 7199, 6705
7434, 7201, 7196, 6794, 7199
7435, 7200, 6796, 7196, 7201
7436, 6738, 7200, 7201, 6956
7437, 7162, 7203, 6954, 6678
7438, 7203, 7200, 6738, 6954
7439, 7202, 6796, 7200, 7203
7440, 6788, 7202, 7203, 7162
7441, 7204, 7205, 7172, 6690
7442, 7205, 7202, 6788, 7172
7443, 7195, 6796, 7202, 7205
7444, 6795, 7195, 7205, 7204
7445, 569, 7209, 7206, 570
7446, 7209, 7207, 6798, 7206
7447, 7208, 6799, 7207, 7209
7448, 568, 7208, 7209, 569
7449, 6885, 7211, 567, 566
7450, 7211, 7208, 568, 567
7451, 7210, 6799, 7208, 7211
7452, 6718, 7210, 7211, 6885
7453, 7213, 7214, 6883, 6686
7454, 7214, 7210, 6718, 6883
7455, 7212, 6799, 7210, 7214
7456, 6797, 7212, 7214, 7213
7457, 7216, 7217, 7215, 6702
7458, 7217, 7212, 6797, 7215
7459, 7207, 6799, 7212, 7217
7460, 6798, 7207, 7217, 7216
7461, 7016, 7221, 7218, 6687
7462, 7221, 7219, 6801, 7218
7463, 7220, 6802, 7219, 7221
7464, 6752, 7220, 7221, 7016
7465, 533, 7223, 7014, 534
7466, 7223, 7220, 6752, 7014
7467, 7222, 6802, 7220, 7223
7468, 532, 7222, 7223, 533
7469, 7225, 7226, 531, 530
7470, 7226, 7222, 532, 531
7471, 7224, 6802, 7222, 7226
7472, 6800, 7224, 7226, 7225
7473, 7228, 7229, 7227, 6703
7474, 7229, 7224, 6800, 7227
7475, 7219, 6802, 7224, 7229
7476, 6801, 7219, 7229, 7228
7477, 474, 7233, 7230, 475
7478, 7233, 7231, 6804, 7230
7479, 7232, 6805, 7231, 7233
7480, 473, 7232, 7233, 474
7481, 6939, 7235, 472, 471
7482, 7235, 7232, 473, 472
7483, 7234, 6805, 7232, 7235
7484, 6733, 7234, 7235, 6939
7485, 7237, 7238, 6937, 6676
7486, 7238, 7234, 6733, 6937
7487, 7236, 6805, 7234, 7238
7488, 6803, 7236, 7238, 7237
7489, 7240, 7241, 7239, 6699
7490, 7241, 7236, 6803, 7239
7491, 7231, 6805, 7236, 7241
7492, 6804, 7231, 7241, 7240
7493, 6844, 7245, 7242, 6692
7494, 7245, 7243, 6806, 7242
7495, 7244, 6807, 7243, 7245
7496, 6707, 7244, 7245, 6844
7497, 478, 7247, 6842, 479
7498, 7247, 7244, 6707, 6842
7499, 7246, 6807, 7244, 7247
7500, 477, 7246, 7247, 478
7501, 7230, 7249, 476, 475
7502, 7249, 7246, 477, 476
7503, 7248, 6807, 7246, 7249
7504, 6804, 7248, 7249, 7230
7505, 7250, 7251, 7240, 6699
7506, 7251, 7248, 6804, 7240
7507, 7243, 6807, 7248, 7251
7508, 6806, 7243, 7251, 7250
7509, 529, 7254, 7225, 530
7510, 7254, 7252, 6800, 7225
7511, 7253, 6808, 7252, 7254
7512, 528, 7253, 7254, 529
7513, 7070, 7256, 527, 526
7514, 7256, 7253, 528, 527
7515, 7255, 6808, 7253, 7256
7516, 6766, 7255, 7256, 7070
7517, 7192, 7258, 7068, 6689
7518, 7258, 7255, 6766, 7068
7519, 7257, 6808, 7255, 7258
7520, 6792, 7257, 7258, 7192
7521, 7227, 7259, 7190, 6703
7522, 7259, 7257, 6792, 7190
7523, 7252, 6808, 7257, 7259
7524, 6800, 7252, 7259, 7227
7525, 7142, 7262, 7204, 6690
7526, 7262, 7260, 6795, 7204
7527, 7261, 6809, 7260, 7262
7528, 6781, 7261, 7262, 7142
7529, 573, 7264, 7140, 574
7530, 7264, 7261, 6781, 7140
7531, 7263, 6809, 7261, 7264
7532, 572, 7263, 7264, 573
7533, 7206, 7266, 571, 570
7534, 7266, 7263, 572, 571
7535, 7265, 6809, 7263, 7266
7536, 6798, 7265, 7266, 7206
7537, 7194, 7267, 7216, 6702
7538, 7267, 7265, 6798, 7216
7539, 7260, 6809, 7265, 7267
7540, 6795, 7260, 7267, 7194
7541, 7188, 7270, 7228, 6703
7542, 7270, 7268, 6801, 7228
7543, 7269, 6810, 7268, 7270
7544, 6791, 7269, 7270, 7188
7545, 6894, 7272, 7186, 6704
7546, 7272, 7269, 6791, 7186
7547, 7271, 6810, 7269, 7272
7548, 6724, 7271, 7272, 6894
7549, 6981, 7274, 6906, 6685
7550, 7274, 7271, 6724, 6906
7551, 7273, 6810, 7271, 7274
7552, 6744, 7273, 7274, 6981
7553, 7218, 7275, 6979, 6687
7554, 7275, 7273, 6744, 6979
7555, 7268, 6810, 7273, 7275
7556, 6801, 7268, 7275, 7218
7557, 6934, 7279, 7276, 6676
7558, 7279, 7277, 6811, 7276
7559, 7278, 6812, 7277, 7279
7560, 6735, 7278, 7279, 6934
7561, 7199, 7281, 6946, 6705
7562, 7281, 7278, 6735, 6946
7563, 7280, 6812, 7278, 7281
7564, 6794, 7280, 7281, 7199
7565, 7215, 7283, 7197, 6702
7566, 7283, 7280, 6794, 7197
7567, 7282, 6812, 7280, 7283
7568, 6797, 7282, 7283, 7215
7569, 7284, 7285, 7213, 6686
7570, 7285, 7282, 6797, 7213
7571, 7277, 6812, 7282, 7285
7572, 6811, 7277, 7285, 7284
7573, 6880, 7288, 7284, 6686
7574, 7288, 7286, 6811, 7284
7575, 7287, 6814, 7286, 7288
7576, 6720, 7287, 7288, 6880
7577, 7290, 7291, 6892, 6693
7578, 7291, 7287, 6720, 6892
7579, 7289, 6814, 7287, 7291
7580, 6813, 7289, 7291, 7290
7581, 7239, 7294, 7292, 6699
7582, 7294, 7289, 6813, 7292
7583, 7293, 6814, 7289, 7294
7584, 6803, 7293, 7294, 7239
7585, 7276, 7295, 7237, 6676
7586, 7295, 7293, 6803, 7237
7587, 7286, 6814, 7293, 7295
7588, 6811, 7286, 7295, 7276
7589, 7299, 7300, 7296, 6681
7590, 7300, 7297, 6817, 7296
7591, 7298, 6818, 7297, 7300
7592, 6815, 7298, 7300, 7299
7593, 7303, 7304, 7301, 6683
7594, 7304, 7298, 6815, 7301
7595, 7302, 6818, 7298, 7304
7596, 6816, 7302, 7304, 7303
7597, 6854, 7307, 7305, 6675
7598, 7307, 7302, 6816, 7305
7599, 7306, 6818, 7302, 7307
7600, 6712, 7306, 7307, 6854
7601, 7308, 7309, 6864, 6682
7602, 7309, 7306, 6712, 6864
7603, 7297, 6818, 7306, 7309
7604, 6817, 7297, 7309, 7308
7605, 7024, 7312, 6920, 6701
7606, 7312, 7310, 6728, 6920
7607, 7311, 6821, 7310, 7312
7608, 6754, 7311, 7312, 7024
7609, 7314, 7315, 7022, 6684
7610, 7315, 7311, 6754, 7022
7611, 7313, 6821, 7311, 7315
7612, 6819, 7313, 7315, 7314
7613, 7318, 7319, 7316, 6698
7614, 7319, 7313, 6819, 7316
7615, 7317, 6821, 7313, 7319
7616, 6820, 7317, 7319, 7318
7617, 6908, 7321, 7320, 6688
7618, 7321, 7317, 6820, 7320
7619, 7310, 6821, 7317, 7321
7620, 6728, 7310, 7321, 6908
7621, 7242, 7325, 7322, 6692
7622, 7325, 7323, 6823, 7322
7623, 7324, 6824, 7323, 7325
7624, 6806, 7324, 7325, 7242
7625, 7292, 7327, 7250, 6699
7626, 7327, 7324, 6806, 7250
7627, 7326, 6824, 7324, 7327
7628, 6813, 7326, 7327, 7292
7629, 7329, 7330, 7290, 6693
7630, 7330, 7326, 6813, 7290
7631, 7328, 6824, 7326, 7330
7632, 6822, 7328, 7330, 7329
7633, 7332, 7333, 7331, 6697
7634, 7333, 7328, 6822, 7331
7635, 7323, 6824, 7328, 7333
7636, 6823, 7323, 7333, 7332
7637, 490, 7337, 7334, 491
7638, 7337, 7335, 6826, 7334
7639, 7336, 6827, 7335, 7337
7640, 489, 7336, 7337, 490
7641, 6859, 7339, 488, 487
7642, 7339, 7336, 489, 488
7643, 7338, 6827, 7336, 7339
7644, 6711, 7338, 7339, 6859
7645, 7341, 7342, 6857, 6675
7646, 7342, 7338, 6711, 6857
7647, 7340, 6827, 7338, 7342
7648, 6825, 7340, 7342, 7341
7649, 7344, 7345, 7343, 6698
7650, 7345, 7340, 6825, 7343
7651, 7335, 6827, 7340, 7345
7652, 6826, 7335, 7345, 7344
7653, 6891, 7348, 7329, 6693
7654, 7348, 7346, 6822, 7329
7655, 7347, 6829, 7346, 7348
7656, 6719, 7347, 7348, 6891
7657, 561, 7350, 6889, 562
7658, 7350, 7347, 6719, 6889
7659, 7349, 6829, 7347, 7350
7660, 560, 7349, 7350, 561
7661, 7352, 7353, 559, 558
7662, 7353, 7349, 560, 559
7663, 7351, 6829, 7349, 7353
7664, 6828, 7351, 7353, 7352
7665, 7331, 7355, 7354, 6697
7666, 7355, 7351, 6828, 7354
7667, 7346, 6829, 7351, 7355
7668, 6822, 7346, 7355, 7331
7669, 7358, 7359, 555, 554
7670, 7359, 7356, 556, 555
7671, 7357, 6832, 7356, 7359
7672, 6830, 7357, 7359, 7358
7673, 7362, 7363, 7360, 6681
7674, 7363, 7357, 6830, 7360
7675, 7361, 6832, 7357, 7363
7676, 6831, 7361, 7363, 7362
7677, 7354, 7366, 7364, 6697
7678, 7366, 7361, 6831, 7364
7679, 7365, 6832, 7361, 7366
7680, 6828, 7365, 7366, 7354
7681, 557, 7367, 7352, 558
7682, 7367, 7365, 6828, 7352
7683, 7356, 6832, 7365, 7367
7684, 556, 7356, 7367, 557
7685, 7360, 7370, 7299, 6681
7686, 7370, 7368, 6815, 7299
7687, 7369, 6834, 7368, 7370
7688, 6830, 7369, 7370, 7360
7689, 553, 7372, 7358, 554
7690, 7372, 7369, 6830, 7358
7691, 7371, 6834, 7369, 7372
7692, 552, 7371, 7372, 553
7693, 7374, 7375, 551, 550
7694, 7375, 7371, 552, 551
7695, 7373, 6834, 7371, 7375
7696, 6833, 7373, 7375, 7374
7697, 7301, 7377, 7376, 6683
7698, 7377, 7373, 6833, 7376
7699, 7368, 6834, 7373, 7377
7700, 6815, 7368, 7377, 7301
7701, 6873, 7380, 7314, 6684
7702, 7380, 7378, 6819, 7314
7703, 7379, 6835, 7378, 7380
7704, 6714, 7379, 7380, 6873
7705, 494, 7382, 6871, 495
7706, 7382, 7379, 6714, 6871
7707, 7381, 6835, 7379, 7382
7708, 493, 7381, 7382, 494
7709, 7334, 7384, 492, 491
7710, 7384, 7381, 493, 492
7711, 7383, 6835, 7381, 7384
7712, 6826, 7383, 7384, 7334
7713, 7316, 7385, 7344, 6698
7714, 7385, 7383, 6826, 7344
7715, 7378, 6835, 7383, 7385
7716, 6819, 7378, 7385, 7316
7717, 6848, 7388, 7308, 6682
7718, 7388, 7386, 6817, 7308
7719, 7387, 6836, 7386, 7388
7720, 6708, 7387, 7388, 6848
7721, 7322, 7390, 6846, 6692
7722, 7390, 7387, 6708, 6846
7723, 7389, 6836, 7387, 7390
7724, 6823, 7389, 7390, 7322
7725, 7364, 7392, 7332, 6697
7726, 7392, 7389, 6823, 7332
7727, 7391, 6836, 7389, 7392
7728, 6831, 7391, 7392, 7364
7729, 7296, 7393, 7362, 6681
7730, 7393, 7391, 6831, 7362
7731, 7386, 6836, 7391, 7393
7732, 6817, 7386, 7393, 7296
7733, 7396, 7397, 7303, 6683
7734, 7397, 7394, 6816, 7303
7735, 7395, 6838, 7394, 7397
7736, 6837, 7395, 7397, 7396
7737, 7320, 7400, 7398, 6688
7738, 7400, 7395, 6837, 7398
7739, 7399, 6838, 7395, 7400
7740, 6820, 7399, 7400, 7320
7741, 7343, 7402, 7318, 6698
7742, 7402, 7399, 6820, 7318
7743, 7401, 6838, 7399, 7402
7744, 6825, 7401, 7402, 7343
7745, 7305, 7403, 7341, 6675
7746, 7403, 7401, 6825, 7341
7747, 7394, 6838, 7401, 7403
7748, 6816, 7394, 7403, 7305
7749, 6913, 7406, 547, 546
7750, 7406, 7404, 548, 547
7751, 7405, 6839, 7404, 7406
7752, 6726, 7405, 7406, 6913
7753, 7398, 7408, 6911, 6688
7754, 7408, 7405, 6726, 6911
7755, 7407, 6839, 7405, 7408
7756, 6837, 7407, 7408, 7398
7757, 7376, 7410, 7396, 6683
7758, 7410, 7407, 6837, 7396
7759, 7409, 6839, 7407, 7410
7760, 6833, 7409, 7410, 7376
7761, 549, 7411, 7374, 550
7762, 7411, 7409, 6833, 7374
7763, 7404, 6839, 7409, 7411
7764, 548, 7404, 7411, 549
7765, 8556, 8557, 8553, 43
7766, 8557, 8554, 7674, 8553
7767, 8555, 7675, 8554, 8557
7768, 7672, 8555, 8557, 8556
7769, 8560, 8561, 8558, 7434
7770, 8561, 8555, 7672, 8558
7771, 8559, 7675, 8555, 8561
7772, 7673, 8559, 8561, 8560
7773, 8563, 8564, 8562, 7562
7774, 8564, 8559, 7673, 8562
7775, 8554, 7675, 8559, 8564
7776, 7674, 8554, 8564, 8563
7777, 8568, 8569, 8565, 7619
7778, 8569, 8566, 7678, 8565
7779, 8567, 7679, 8566, 8569
7780, 7676, 8567, 8569, 8568
7781, 8572, 8573, 8570, 7591
7782, 8573, 8567, 7676, 8570
7783, 8571, 7679, 8567, 8573
7784, 7677, 8571, 8573, 8572
7785, 8575, 8576, 8574, 7639
7786, 8576, 8571, 7677, 8574
7787, 8566, 7679, 8571, 8576
7788, 7678, 8566, 8576, 8575
7789, 8580, 8581, 8577, 7666
7790, 8581, 8578, 7682, 8577
7791, 8579, 7683, 8578, 8581
7792, 7680, 8579, 8581, 8580
7793, 8584, 8585, 8582, 7665
7794, 8585, 8579, 7680, 8582
7795, 8583, 7683, 8579, 8585
7796, 7681, 8583, 8585, 8584
7797, 8587, 8588, 8586, 7671
7798, 8588, 8583, 7681, 8586
7799, 8578, 7683, 8583, 8588
7800, 7682, 8578, 8588, 8587
7801, 8592, 8593, 8589, 7646
7802, 8593, 8590, 7686, 8589
7803, 8591, 7687, 8590, 8593
7804, 7684, 8591, 8593, 8592
7805, 8596, 8597, 8594, 7635
7806, 8597, 8591, 7684, 8594
7807, 8595, 7687, 8591, 8597
7808, 7685, 8595, 8597, 8596
7809, 8599, 8600, 8598, 7651
7810, 8600, 8595, 7685, 8598
7811, 8590, 7687, 8595, 8600
7812, 7686, 8590, 8600, 8599
7813, 8604, 8605, 8601, 7618
7814, 8605, 8602, 7690, 8601
7815, 8603, 7691, 8602, 8605
7816, 7688, 8603, 8605, 8604
7817, 8608, 8609, 8606, 7620
7818, 8609, 8603, 7688, 8606
7819, 8607, 7691, 8603, 8609
7820, 7689, 8607, 8609, 8608
7821, 8611, 8612, 8610, 7637
7822, 8612, 8607, 7689, 8610
7823, 8602, 7691, 8607, 8612
7824, 7690, 8602, 8612, 8611
7825, 8616, 8617, 8613, 7433
7826, 8617, 8614, 7694, 8613
7827, 8615, 7695, 8614, 8617
7828, 7692, 8615, 8617, 8616
7829, 8620, 8621, 8618, 7439
7830, 8621, 8615, 7692, 8618
7831, 8619, 7695, 8615, 8621
7832, 7693, 8619, 8621, 8620
7833, 8623, 8624, 8622, 7479
7834, 8624, 8619, 7693, 8622
7835, 8614, 7695, 8619, 8624
7836, 7694, 8614, 8624, 8623
7837, 8628, 8629, 8625, 7443
7838, 8629, 8626, 7698, 8625
7839, 8627, 7699, 8626, 8629
7840, 7696, 8627, 8629, 8628
7841, 8632, 8633, 8630, 7425
7842, 8633, 8627, 7696, 8630
7843, 8631, 7699, 8627, 8633
7844, 7697, 8631, 8633, 8632
7845, 8635, 8636, 8634, 7454
7846, 8636, 8631, 7697, 8634
7847, 8626, 7699, 8631, 8636
7848, 7698, 8626, 8636, 8635
7849, 8640, 8641, 8637, 7461
7850, 8641, 8638, 7702, 8637
7851, 8639, 7703, 8638, 8641
7852, 7700, 8639, 8641, 8640
7853, 8644, 8645, 8642, 7509
7854, 8645, 8639, 7700, 8642
7855, 8643, 7703, 8639, 8645
7856, 7701, 8643, 8645, 8644
7857, 8647, 8648, 8646, 7532
7858, 8648, 8643, 7701, 8646
7859, 8638, 7703, 8643, 8648
7860, 7702, 8638, 8648, 8647
7861, 8652, 8653, 8649, 7487
7862, 8653, 8650, 7706, 8649
7863, 8651, 7707, 8650, 8653
7864, 7704, 8651, 8653, 8652
7865, 8656, 8657, 8654, 7462
7866, 8657, 8651, 7704, 8654
7867, 8655, 7707, 8651, 8657
7868, 7705, 8655, 8657, 8656
7869, 8659, 8660, 8658, 7538
7870, 8660, 8655, 7705, 8658
7871, 8650, 7707, 8655, 8660
7872, 7706, 8650, 8660, 8659
7873, 8664, 8665, 8661, 7432
7874, 8665, 8662, 7710, 8661
7875, 8663, 7711, 8662, 8665
7876, 7708, 8663, 8665, 8664
7877, 8668, 8669, 8666, 7440
7878, 8669, 8663, 7708, 8666
7879, 8667, 7711, 8663, 8669
7880, 7709, 8667, 8669, 8668
7881, 8671, 8672, 8670, 7457
7882, 8672, 8667, 7709, 8670
7883, 8662, 7711, 8667, 8672
7884, 7710, 8662, 8672, 8671
7885, 8676, 8677, 8673, 7548
7886, 8677, 8674, 7714, 8673
7887, 8675, 7715, 8674, 8677
7888, 7712, 8675, 8677, 8676
7889, 8680, 8681, 8678, 7596
7890, 8681, 8675, 7712, 8678
7891, 8679, 7715, 8675, 8681
7892, 7713, 8679, 8681, 8680
7893, 8683, 8684, 8682, 7663
7894, 8684, 8679, 7713, 8682
7895, 8674, 7715, 8679, 8684
7896, 7714, 8674, 8684, 8683
7897, 8688, 8689, 8685, 7437
7898, 8689, 8686, 7718, 8685
7899, 8687, 7719, 8686, 8689
7900, 7716, 8687, 8689, 8688
7901, 8692, 8693, 8690, 7488
7902, 8693, 8687, 7716, 8690
7903, 8691, 7719, 8687, 8693
7904, 7717, 8691, 8693, 8692
7905, 8695, 8696, 8694, 7534
7906, 8696, 8691, 7717, 8694
7907, 8686, 7719, 8691, 8696
7908, 7718, 8686, 8696, 8695
7909, 8700, 8701, 8697, 7550
7910, 8701, 8698, 7722, 8697
7911, 8699, 7723, 8698, 8701
7912, 7720, 8699, 8701, 8700
7913, 8704, 8705, 8702, 7575
7914, 8705, 8699, 7720, 8702
7915, 8703, 7723, 8699, 8705
7916, 7721, 8703, 8705, 8704
7917, 8707, 8708, 8706, 7603
7918, 8708, 8703, 7721, 8706
7919, 8698, 7723, 8703, 8708
7920, 7722, 8698, 8708, 8707
7921, 8712, 8713, 8709, 7579
7922, 8713, 8710, 7726, 8709
7923, 8711, 7727, 8710, 8713
7924, 7724, 8711, 8713, 8712
7925, 8716, 8717, 8714, 7603
7926, 8717, 8711, 7724, 8714
7927, 8715, 7727, 8711, 8717
7928, 7725, 8715, 8717, 8716
7929, 8719, 8720, 8718, 7624
7930, 8720, 8715, 7725, 8718
7931, 8710, 7727, 8715, 8720
7932, 7726, 8710, 8720, 8719
7933, 8724, 8725, 8721, 7649
7934, 8725, 8722, 7730, 8721
7935, 8723, 7731, 8722, 8725
7936, 7728, 8723, 8725, 8724
7937, 8728, 8729, 8726, 7661
7938, 8729, 8723, 7728, 8726
7939, 8727, 7731, 8723, 8729
7940, 7729, 8727, 8729, 8728
7941, 8731, 8732, 8730, 7669
7942, 8732, 8727, 7729, 8730
7943, 8722, 7731, 8727, 8732
7944, 7730, 8722, 8732, 8731
7945, 8736, 8737, 8733, 7459
7946, 8737, 8734, 7734, 8733
7947, 8735, 7735, 8734, 8737
7948, 7732, 8735, 8737, 8736
7949, 8740, 8741, 8738, 7494
7950, 8741, 8735, 7732, 8738
7951, 8739, 7735, 8735, 8741
7952, 7733, 8739, 8741, 8740
7953, 8743, 8744, 8742, 7539
7954, 8744, 8739, 7733, 8742
7955, 8734, 7735, 8739, 8744
7956, 7734, 8734, 8744, 8743
7957, 8748, 8749, 8745, 7588
7958, 8749, 8746, 7738, 8745
7959, 8747, 7739, 8746, 8749
7960, 7736, 8747, 8749, 8748
7961, 8752, 8753, 8750, 7543
7962, 8753, 8747, 7736, 8750
7963, 8751, 7739, 8747, 8753
7964, 7737, 8751, 8753, 8752
7965, 8755, 8756, 8754, 7605
7966, 8756, 8751, 7737, 8754
7967, 8746, 7739, 8751, 8756
7968, 7738, 8746, 8756, 8755
7969, 8760, 8761, 8757, 7598
7970, 8761, 8758, 7742, 8757
7971, 8759, 7743, 8758, 8761
7972, 7740, 8759, 8761, 8760
7973, 8764, 8765, 8762, 7611
7974, 8765, 8759, 7740, 8762
7975, 8763, 7743, 8759, 8765
7976, 7741, 8763, 8765, 8764
7977, 8767, 8768, 8766, 7629
7978, 8768, 8763, 7741, 8766
7979, 8758, 7743, 8763, 8768
7980, 7742, 8758, 8768, 8767
7981, 8772, 8773, 8769, 7591
7982, 8773, 8770, 7746, 8769
7983, 8771, 7747, 8770, 8773
7984, 7744, 8771, 8773, 8772
7985, 8776, 8777, 8774, 7604
7986, 8777, 8771, 7744, 8774
7987, 8775, 7747, 8771, 8777
7988, 7745, 8775, 8777, 8776
7989, 8779, 8780, 8778, 7615
7990, 8780, 8775, 7745, 8778
7991, 8770, 7747, 8775, 8780
7992, 7746, 8770, 8780, 8779
7993, 8784, 8785, 8781, 7543
7994, 8785, 8782, 7750, 8781
7995, 8783, 7751, 8782, 8785
7996, 7748, 8783, 8785, 8784
7997, 8788, 8789, 8786, 7556
7998, 8789, 8783, 7748, 8786
7999, 8787, 7751, 8783, 8789
8000, 7749, 8787, 8789, 8788
8001, 8791, 8792, 8790, 7567
8002, 8792, 8787, 7749, 8790
8003, 8782, 7751, 8787, 8792
8004, 7750, 8782, 8792, 8791
8005, 8796, 8797, 8793, 7609
8006, 8797, 8794, 7754, 8793
8007, 8795, 7755, 8794, 8797
8008, 7752, 8795, 8797, 8796
8009, 8800, 8801, 8798, 7569
8010, 8801, 8795, 7752, 8798
8011, 8799, 7755, 8795, 8801
8012, 7753, 8799, 8801, 8800
8013, 8803, 8804, 8802, 7617
8014, 8804, 8799, 7753, 8802
8015, 8794, 7755, 8799, 8804
8016, 7754, 8794, 8804, 8803
8017, 8808, 8809, 8805, 7648
8018, 8809, 8806, 7758, 8805
8019, 8807, 7759, 8806, 8809
8020, 7756, 8807, 8809, 8808
8021, 8812, 8813, 8810, 7657
8022, 8813, 8807, 7756, 8810
8023, 8811, 7759, 8807, 8813
8024, 7757, 8811, 8813, 8812
8025, 8815, 8816, 8814, 7664
8026, 8816, 8811, 7757, 8814
8027, 8806, 7759, 8811, 8816
8028, 7758, 8806, 8816, 8815
8029, 8820, 8821, 8817, 7532
8030, 8821, 8818, 7762, 8817
8031, 8819, 7763, 8818, 8821
8032, 7760, 8819, 8821, 8820
8033, 8824, 8825, 8822, 7515
8034, 8825, 8819, 7760, 8822
8035, 8823, 7763, 8819, 8825
8036, 7761, 8823, 8825, 8824
8037, 8827, 8828, 8826, 7563
8038, 8828, 8823, 7761, 8826
8039, 8818, 7763, 8823, 8828
8040, 7762, 8818, 8828, 8827
8041, 8832, 8833, 8829, 7655
8042, 8833, 8830, 7766, 8829
8043, 8831, 7767, 8830, 8833
8044, 7764, 8831, 8833, 8832
8045, 8836, 8837, 8834, 7643
8046, 8837, 8831, 7764, 8834
8047, 8835, 7767, 8831, 8837
8048, 7765, 8835, 8837, 8836
8049, 8839, 8840, 8838, 7659
8050, 8840, 8835, 7765, 8838
8051, 8830, 7767, 8835, 8840
8052, 7766, 8830, 8840, 8839
8053, 8844, 8845, 8841, 7474
8054, 8845, 8842, 7770, 8841
8055, 8843, 7771, 8842, 8845
8056, 7768, 8843, 8845, 8844
8057, 8848, 8849, 8846, 7445
8058, 8849, 8843, 7768, 8846
8059, 8847, 7771, 8843, 8849
8060, 7769, 8847, 8849, 8848
8061, 8851, 8852, 8850, 7503
8062, 8852, 8847, 7769, 8850
8063, 8842, 7771, 8847, 8852
8064, 7770, 8842, 8852, 8851
8065, 8856, 8857, 8853, 7561
8066, 8857, 8854, 7774, 8853
8067, 8855, 7775, 8854, 8857
8068, 7772, 8855, 8857, 8856
8069, 8860, 8861, 8858, 7547
8070, 8861, 8855, 7772, 8858
8071, 8859, 7775, 8855, 8861
8072, 7773, 8859, 8861, 8860
8073, 8863, 8864, 8862, 7587
8074, 8864, 8859, 7773, 8862
8075, 8854, 7775, 8859, 8864
8076, 7774, 8854, 8864, 8863
8077, 8868, 8869, 8865, 7627
8078, 8869, 8866, 7778, 8865
8079, 8867, 7779, 8866, 8869
8080, 7776, 8867, 8869, 8868
8081, 8872, 8873, 8870, 7638
8082, 8873, 8867, 7776, 8870
8083, 8871, 7779, 8867, 8873
8084, 7777, 8871, 8873, 8872
8085, 8875, 8876, 8874, 7642
8086, 8876, 8871, 7777, 8874
8087, 8866, 7779, 8871, 8876
8088, 7778, 8866, 8876, 8875
8089, 8880, 8881, 8877, 7558
8090, 8881, 8878, 7782, 8877
8091, 8879, 7783, 8878, 8881
8092, 7780, 8879, 8881, 8880
8093, 8884, 8885, 8882, 7582
8094, 8885, 8879, 7780, 8882
8095, 8883, 7783, 8879, 8885
8096, 7781, 8883, 8885, 8884
8097, 8887, 8888, 8886, 7599
8098, 8888, 8883, 7781, 8886
8099, 8878, 7783, 8883, 8888
8100, 7782, 8878, 8888, 8887
8101, 8892, 8893, 8889, 7415
8102, 8893, 8890, 7786, 8889
8103, 8891, 7787, 8890, 8893
8104, 7784, 8891, 8893, 8892
8105, 8896, 8897, 8894, 7471
8106, 8897, 8891, 7784, 8894
8107, 8895, 7787, 8891, 8897
8108, 7785, 8895, 8897, 8896
8109, 8899, 8900, 8898, 7505
8110, 8900, 8895, 7785, 8898
8111, 8890, 7787, 8895, 8900
8112, 7786, 8890, 8900, 8899
8113, 8904, 8905, 8901, 7506
8114, 8905, 8902, 7790, 8901
8115, 8903, 7791, 8902, 8905
8116, 7788, 8903, 8905, 8904
8117, 8908, 8909, 8906, 7518
8118, 8909, 8903, 7788, 8906
8119, 8907, 7791, 8903, 8909
8120, 7789, 8907, 8909, 8908
8121, 8911, 8912, 8910, 7529
8122, 8912, 8907, 7789, 8910
8123, 8902, 7791, 8907, 8912
8124, 7790, 8902, 8912, 8911
8125, 8916, 8917, 8913, 7528
8126, 8917, 8914, 7794, 8913
8127, 8915, 7795, 8914, 8917
8128, 7792, 8915, 8917, 8916
8129, 8920, 8921, 8918, 7482
8130, 8921, 8915, 7792, 8918
8131, 8919, 7795, 8915, 8921
8132, 7793, 8919, 8921, 8920
8133, 8923, 8924, 8922, 7559
8134, 8924, 8919, 7793, 8922
8135, 8914, 7795, 8919, 8924
8136, 7794, 8914, 8924, 8923
8137, 8928, 8929, 8925, 7483
8138, 8929, 8926, 7798, 8925
8139, 8927, 7799, 8926, 8929
8140, 7796, 8927, 8929, 8928
8141, 8932, 8933, 8930, 7537
8142, 8933, 8927, 7796, 8930
8143, 8931, 7799, 8927, 8933
8144, 7797, 8931, 8933, 8932
8145, 8935, 8936, 8934, 7564
8146, 8936, 8931, 7797, 8934
8147, 8926, 7799, 8931, 8936
8148, 7798, 8926, 8936, 8935
8149, 8940, 8941, 8937, 7457
8150, 8941, 8938, 7802, 8937
8151, 8939, 7803, 8938, 8941
8152, 7800, 8939, 8941, 8940
8153, 8944, 8945, 8942, 7487
8154, 8945, 8939, 7800, 8942
8155, 8943, 7803, 8939, 8945
8156, 7801, 8943, 8945, 8944
8157, 8947, 8948, 8946, 7535
8158, 8948, 8943, 7801, 8946
8159, 8938, 7803, 8943, 8948
8160, 7802, 8938, 8948, 8947
8161, 8952, 8953, 8949, 7538
8162, 8953, 8950, 7806, 8949
8163, 8951, 7807, 8950, 8953
8164, 7804, 8951, 8953, 8952
8165, 8956, 8957, 8954, 7495
8166, 8957, 8951, 7804, 8954
8167, 8955, 7807, 8951, 8957
8168, 7805, 8955, 8957, 8956
8169, 8959, 8960, 8958, 7565
8170, 8960, 8955, 7805, 8958
8171, 8950, 7807, 8955, 8960
8172, 7806, 8950, 8960, 8959
8173, 8964, 8965, 8961, 7546
8174, 8965, 8962, 7810, 8961
8175, 8963, 7811, 8962, 8965
8176, 7808, 8963, 8965, 8964
8177, 8968, 8969, 8966, 7587
8178, 8969, 8963, 7808, 8966
8179, 8967, 7811, 8963, 8969
8180, 7809, 8967, 8969, 8968
8181, 8971, 8972, 8970, 7588
8182, 8972, 8967, 7809, 8970
8183, 8962, 7811, 8967, 8972
8184, 7810, 8962, 8972, 8971
8185, 8976, 8977, 8973, 7660
8186, 8977, 8974, 7814, 8973
8187, 8975, 7815, 8974, 8977
8188, 7812, 8975, 8977, 8976
8189, 8980, 8981, 8978, 7645
8190, 8981, 8975, 7812, 8978
8191, 8979, 7815, 8975, 8981
8192, 7813, 8979, 8981, 8980
8193, 8983, 8984, 8982, 7662
8194, 8984, 8979, 7813, 8982
8195, 8974, 7815, 8979, 8984
8196, 7814, 8974, 8984, 8983
8197, 614, 8988, 8985, 42
8198, 8988, 8986, 7817, 8985
8199, 8987, 7818, 8986, 8988
8200, 613, 8987, 8988, 614
8201, 8990, 8991, 612, 611
8202, 8991, 8987, 613, 612
8203, 8989, 7818, 8987, 8991
8204, 7816, 8989, 8991, 8990
8205, 8993, 8994, 8992, 7416
8206, 8994, 8989, 7816, 8992
8207, 8986, 7818, 8989, 8994
8208, 7817, 8986, 8994, 8993
8209, 729, 8998, 8995, 730
8210, 8998, 8996, 7820, 8995
8211, 8997, 7821, 8996, 8998
8212, 728, 8997, 8998, 729
8213, 9000, 9001, 727, 61
8214, 9001, 8997, 728, 727
8215, 8999, 7821, 8997, 9001
8216, 7819, 8999, 9001, 9000
8217, 9003, 9004, 9002, 7418
8218, 9004, 8999, 7819, 9002
8219, 8996, 7821, 8999, 9004
8220, 7820, 8996, 9004, 9003
8221, 174, 9008, 9005, 173
8222, 9008, 9006, 7824, 9005
8223, 9007, 7825, 9006, 9008
8224, 175, 9007, 9008, 174
8225, 9010, 9011, 176, 177
8226, 9011, 9007, 175, 176
8227, 9009, 7825, 9007, 9011
8228, 7822, 9009, 9011, 9010
8229, 9014, 9015, 9012, 7435
8230, 9015, 9009, 7822, 9012
8231, 9013, 7825, 9009, 9015
8232, 7823, 9013, 9015, 9014
8233, 9017, 9018, 9016, 7436
8234, 9018, 9013, 7823, 9016
8235, 9006, 7825, 9013, 9018
8236, 7824, 9006, 9018, 9017
8237, 9022, 9023, 9019, 7437
8238, 9023, 9020, 7828, 9019
8239, 9021, 7829, 9020, 9023
8240, 7826, 9021, 9023, 9022
8241, 154, 9026, 9024, 153
8242, 9026, 9021, 7826, 9024
8243, 9025, 7829, 9021, 9026
8244, 155, 9025, 9026, 154
8245, 9028, 9029, 156, 157
8246, 9029, 9025, 155, 156
8247, 9027, 7829, 9025, 9029
8248, 7827, 9027, 9029, 9028
8249, 9031, 9032, 9030, 7420
8250, 9032, 9027, 7827, 9030
8251, 9020, 7829, 9027, 9032
8252, 7828, 9020, 9032, 9031
8253, 178, 9035, 9010, 177
8254, 9035, 9033, 7822, 9010
8255, 9034, 7832, 9033, 9035
8256, 179, 9034, 9035, 178
8257, 9037, 9038, 180, 181
8258, 9038, 9034, 179, 180
8259, 9036, 7832, 9034, 9038
8260, 7830, 9036, 9038, 9037
8261, 9041, 9042, 9039, 7423
8262, 9042, 9036, 7830, 9039
8263, 9040, 7832, 9036, 9042
8264, 7831, 9040, 9042, 9041
8265, 9012, 9044, 9043, 7435
8266, 9044, 9040, 7831, 9043
8267, 9033, 7832, 9040, 9044
8268, 7822, 9033, 9044, 9012
8269, 9048, 9049, 9045, 7647
8270, 9049, 9046, 7836, 9045
8271, 9047, 7837, 9046, 9049
8272, 7833, 9047, 9049, 9048
8273, 9052, 9053, 9050, 7613
8274, 9053, 9047, 7833, 9050
8275, 9051, 7837, 9047, 9053
8276, 7834, 9051, 9053, 9052
8277, 9056, 9057, 9054, 7636
8278, 9057, 9051, 7834, 9054
8279, 9055, 7837, 9051, 9057
8280, 7835, 9055, 9057, 9056
8281, 9059, 9060, 9058, 7664
8282, 9060, 9055, 7835, 9058
8283, 9046, 7837, 9055, 9060
8284, 7836, 9046, 9060, 9059
8285, 9063, 9064, 9052, 7613
8286, 9064, 9061, 7834, 9052
8287, 9062, 7841, 9061, 9064
8288, 7838, 9062, 9064, 9063
8289, 9067, 9068, 9065, 7581
8290, 9068, 9062, 7838, 9065
8291, 9066, 7841, 9062, 9068
8292, 7839, 9066, 9068, 9067
8293, 9071, 9072, 9069, 7607
8294, 9072, 9066, 7839, 9069
8295, 9070, 7841, 9066, 9072
8296, 7840, 9070, 9072, 9071
8297, 9054, 9074, 9073, 7636
8298, 9074, 9070, 7840, 9073
8299, 9061, 7841, 9070, 9074
8300, 7834, 9061, 9074, 9054
8301, 594, 9078, 9075, 38
8302, 9078, 9076, 7844, 9075
8303, 9077, 7845, 9076, 9078
8304, 593, 9077, 9078, 594
8305, 9080, 9081, 592, 39
8306, 9081, 9077, 593, 592
8307, 9079, 7845, 9077, 9081
8308, 7842, 9079, 9081, 9080
8309, 9084, 9085, 9082, 7462
8310, 9085, 9079, 7842, 9082
8311, 9083, 7845, 9079, 9085
8312, 7843, 9083, 9085, 9084
8313, 9087, 9088, 9086, 7440
8314, 9088, 9083, 7843, 9086
8315, 9076, 7845, 9083, 9088
8316, 7844, 9076, 9088, 9087
8317, 9091, 9092, 622, 621
8318, 9092, 9089, 623, 622
8319, 9090, 7849, 9089, 9092
8320, 7846, 9090, 9092, 9091
8321, 9095, 9096, 9093, 7469
8322, 9096, 9090, 7846, 9093
8323, 9094, 7849, 9090, 9096
8324, 7847, 9094, 9096, 9095
8325, 9099, 9100, 9097, 7412
8326, 9100, 9094, 7847, 9097
8327, 9098, 7849, 9094, 9100
8328, 7848, 9098, 9100, 9099
8329, 624, 9102, 9101, 44
8330, 9102, 9098, 7848, 9101
8331, 9089, 7849, 9098, 9102
8332, 623, 9089, 9102, 624
8333, 9106, 9107, 9103, 7646
8334, 9107, 9104, 7853, 9103
8335, 9105, 7854, 9104, 9107
8336, 7850, 9105, 9107, 9106
8337, 9110, 9111, 9108, 7654
8338, 9111, 9105, 7850, 9108
8339, 9109, 7854, 9105, 9111
8340, 7851, 9109, 9111, 9110
8341, 9114, 9115, 9112, 7634
8342, 9115, 9109, 7851, 9112
8343, 9113, 7854, 9109, 9115
8344, 7852, 9113, 9115, 9114
8345, 9117, 9118, 9116, 7616
8346, 9118, 9113, 7852, 9116
8347, 9104, 7854, 9113, 9118
8348, 7853, 9104, 9118, 9117
8349, 9122, 9123, 9119, 7641
8350, 9123, 9120, 7858, 9119
8351, 9121, 7859, 9120, 9123
8352, 7855, 9121, 9123, 9122
8353, 9126, 9127, 9124, 7616
8354, 9127, 9121, 7855, 9124
8355, 9125, 7859, 9121, 9127
8356, 7856, 9125, 9127, 9126
8357, 9130, 9131, 9128, 7566
8358, 9131, 9125, 7856, 9128
8359, 9129, 7859, 9125, 9131
8360, 7857, 9129, 9131, 9130
8361, 9133, 9134, 9132, 7600
8362, 9134, 9129, 7857, 9132
8363, 9120, 7859, 9129, 9134
8364, 7858, 9120, 9134, 9133
8365, 9138, 9139, 9135, 7593
8366, 9139, 9136, 7863, 9135
8367, 9137, 7864, 9136, 9139
8368, 7860, 9137, 9139, 9138
8369, 9142, 9143, 9140, 7663
8370, 9143, 9137, 7860, 9140
8371, 9141, 7864, 9137, 9143
8372, 7861, 9141, 9143, 9142
8373, 9146, 9147, 9144, 7653
8374, 9147, 9141, 7861, 9144
8375, 9145, 7864, 9141, 9147
8376, 7862, 9145, 9147, 9146
8377, 9149, 9150, 9148, 7630
8378, 9150, 9145, 7862, 9148
8379, 9136, 7864, 9145, 9150
8380, 7863, 9136, 9150, 9149
8381, 170, 9154, 9151, 169
8382, 9154, 9152, 7866, 9151
8383, 9153, 7867, 9152, 9154
8384, 171, 9153, 9154, 170
8385, 9005, 9156, 172, 173
8386, 9156, 9153, 171, 172
8387, 9155, 7867, 9153, 9156
8388, 7824, 9155, 9156, 9005
8389, 9158, 9159, 9017, 7436
8390, 9159, 9155, 7824, 9017
8391, 9157, 7867, 9155, 9159
8392, 7865, 9157, 9159, 9158
8393, 9161, 9162, 9160, 7463
8394, 9162, 9157, 7865, 9160
8395, 9152, 7867, 9157, 9162
8396, 7866, 9152, 9162, 9161
8397, 9166, 9167, 9163, 7442
8398, 9167, 9164, 7870, 9163
8399, 9165, 7871, 9164, 9167
8400, 7868, 9165, 9167, 9166
8401, 9170, 9171, 9168, 7468
8402, 9171, 9165, 7868, 9168
8403, 9169, 7871, 9165, 9171
8404, 7869, 9169, 9171, 9170
8405, 627, 9174, 9172, 628
8406, 9174, 9169, 7869, 9172
8407, 9173, 7871, 9169, 9174
8408, 626, 9173, 9174, 627
8409, 9175, 9176, 625, 46
8410, 9176, 9173, 626, 625
8411, 9164, 7871, 9173, 9176
8412, 7870, 9164, 9176, 9175
8413, 9135, 9180, 9177, 7593
8414, 9180, 9178, 7874, 9177
8415, 9179, 7875, 9178, 9180
8416, 7863, 9179, 9180, 9135
8417, 9182, 9183, 9149, 7630
8418, 9183, 9179, 7863, 9149
8419, 9181, 7875, 9179, 9183
8420, 7872, 9181, 9183, 9182
8421, 9186, 9187, 9184, 7614
8422, 9187, 9181, 7872, 9184
8423, 9185, 7875, 9181, 9187
8424, 7873, 9185, 9187, 9186
8425, 9189, 9190, 9188, 7568
8426, 9190, 9185, 7873, 9188
8427, 9178, 7875, 9185, 9190
8428, 7874, 9178, 9190, 9189
8429, 162, 9194, 9191, 161
8430, 9194, 9192, 7878, 9191
8431, 9193, 7879, 9192, 9194
8432, 163, 9193, 9194, 162
8433, 9196, 9197, 164, 165
8434, 9197, 9193, 163, 164
8435, 9195, 7879, 9193, 9197
8436, 7876, 9195, 9197, 9196
8437, 9200, 9201, 9198, 7414
8438, 9201, 9195, 7876, 9198
8439, 9199, 7879, 9195, 9201
8440, 7877, 9199, 9201, 9200
8441, 9203, 9204, 9202, 7464
8442, 9204, 9199, 7877, 9202
8443, 9192, 7879, 9199, 9204
8444, 7878, 9192, 9204, 9203
8445, 9172, 9207, 629, 628
8446, 9207, 9205, 630, 629
8447, 9206, 7882, 9205, 9207
8448, 7869, 9206, 9207, 9172
8449, 9209, 9210, 9170, 7468
8450, 9210, 9206, 7869, 9170
8451, 9208, 7882, 9206, 9210
8452, 7880, 9208, 9210, 9209
8453, 9213, 9214, 9211, 7426
8454, 9214, 9208, 7880, 9211
8455, 9212, 7882, 9208, 9214
8456, 7881, 9212, 9214, 9213
8457, 631, 9216, 9215, 45
8458, 9216, 9212, 7881, 9215
8459, 9205, 7882, 9212, 9216
8460, 630, 9205, 9216, 631
8461, 8726, 9220, 9217, 7661
8462, 9220, 9218, 7884, 9217
8463, 9219, 7885, 9218, 9220
8464, 7728, 9219, 9220, 8726
8465, 9222, 9223, 8724, 7649
8466, 9223, 9219, 7728, 8724
8467, 9221, 7885, 9219, 9223
8468, 7883, 9221, 9223, 9222
8469, 9148, 9226, 9224, 7630
8470, 9226, 9221, 7883, 9224
8471, 9225, 7885, 9221, 9226
8472, 7862, 9225, 9226, 9148
8473, 9227, 9228, 9146, 7653
8474, 9228, 9225, 7862, 9146
8475, 9218, 7885, 9225, 9228
8476, 7884, 9218, 9228, 9227
8477, 9232, 9233, 9229, 7596
8478, 9233, 9230, 7887, 9229
8479, 9231, 7888, 9230, 9233
8480, 7886, 9231, 9233, 9232
8481, 9128, 9236, 9234, 7566
8482, 9236, 9231, 7886, 9234
8483, 9235, 7888, 9231, 9236
8484, 7856, 9235, 9236, 9128
8485, 9116, 9238, 9126, 7616
8486, 9238, 9235, 7856, 9126
8487, 9237, 7888, 9235, 9238
8488, 7852, 9237, 9238, 9116
8489, 9239, 9240, 9114, 7634
8490, 9240, 9237, 7852, 9114
8491, 9230, 7888, 9237, 9240
8492, 7887, 9230, 9240, 9239
8493, 705, 9244, 9241, 706
8494, 9244, 9242, 7891, 9241
8495, 9243, 7892, 9242, 9244
8496, 704, 9243, 9244, 705
8497, 9246, 9247, 703, 57
8498, 9247, 9243, 704, 703
8499, 9245, 7892, 9243, 9247
8500, 7889, 9245, 9247, 9246
8501, 9250, 9251, 9248, 7427
8502, 9251, 9245, 7889, 9248
8503, 9249, 7892, 9245, 9251
8504, 7890, 9249, 9251, 9250
8505, 9253, 9254, 9252, 7467
8506, 9254, 9249, 7890, 9252
8507, 9242, 7892, 9249, 9254
8508, 7891, 9242, 9254, 9253
8509, 9258, 9259, 9255, 7574
8510, 9259, 9256, 7896, 9255
8511, 9257, 7897, 9256, 9259
8512, 7893, 9257, 9259, 9258
8513, 9262, 9263, 9260, 7622
8514, 9263, 9257, 7893, 9260
8515, 9261, 7897, 9257, 9263
8516, 7894, 9261, 9263, 9262
8517, 9266, 9267, 9264, 7604
8518, 9267, 9261, 7894, 9264
8519, 9265, 7897, 9261, 9267
8520, 7895, 9265, 9267, 9266
8521, 9269, 9270, 9268, 7554
8522, 9270, 9265, 7895, 9268
8523, 9256, 7897, 9265, 9270
8524, 7896, 9256, 9270, 9269
8525, 9234, 9274, 9271, 7566
8526, 9274, 9272, 7899, 9271
8527, 9273, 7900, 9272, 9274
8528, 7886, 9273, 9274, 9234
8529, 8678, 9276, 9232, 7596
8530, 9276, 9273, 7886, 9232
8531, 9275, 7900, 9273, 9276
8532, 7712, 9275, 9276, 8678
8533, 9278, 9279, 8676, 7548
8534, 9279, 9275, 7712, 8676
8535, 9277, 7900, 9275, 9279
8536, 7898, 9277, 9279, 9278
8537, 9281, 9282, 9280, 7510
8538, 9282, 9277, 7898, 9280
8539, 9272, 7900, 9277, 9282
8540, 7899, 9272, 9282, 9281
8541, 186, 9286, 9283, 185
8542, 9286, 9284, 7903, 9283
8543, 9285, 7904, 9284, 9286
8544, 187, 9285, 9286, 186
8545, 9288, 9289, 188, 189
8546, 9289, 9285, 187, 188
8547, 9287, 7904, 9285, 9289
8548, 7901, 9287, 9289, 9288
8549, 9292, 9293, 9290, 7428
8550, 9293, 9287, 7901, 9290
8551, 9291, 7904, 9287, 9293
8552, 7902, 9291, 9293, 9292
8553, 9295, 9296, 9294, 7461
8554, 9296, 9291, 7902, 9294
8555, 9284, 7904, 9291, 9296
8556, 7903, 9284, 9296, 9295
8557, 9300, 9301, 9297, 7441
8558, 9301, 9298, 7906, 9297
8559, 9299, 7907, 9298, 9301
8560, 7905, 9299, 9301, 9300
8561, 709, 9304, 9302, 56
8562, 9304, 9299, 7905, 9302
8563, 9303, 7907, 9299, 9304
8564, 708, 9303, 9304, 709
8565, 9241, 9306, 707, 706
8566, 9306, 9303, 708, 707
8567, 9305, 7907, 9303, 9306
8568, 7891, 9305, 9306, 9241
8569, 9307, 9308, 9253, 7467
8570, 9308, 9305, 7891, 9253
8571, 9298, 7907, 9305, 9308
8572, 7906, 9298, 9308, 9307
8573, 9312, 9313, 9309, 7489
8574, 9313, 9310, 7910, 9309
8575, 9311, 7911, 9310, 9313
8576, 7908, 9311, 9313, 9312
8577, 9160, 9316, 9314, 7463
8578, 9316, 9311, 7908, 9314
8579, 9315, 7911, 9311, 9316
8580, 7865, 9315, 9316, 9160
8581, 9318, 9319, 9158, 7436
8582, 9319, 9315, 7865, 9158
8583, 9317, 7911, 9315, 9319
8584, 7909, 9317, 9319, 9318
8585, 9321, 9322, 9320, 7499
8586, 9322, 9317, 7909, 9320
8587, 9310, 7911, 9317, 9322
8588, 7910, 9310, 9322, 9321
8589, 9325, 9326, 9239, 7634
8590, 9326, 9323, 7887, 9239
8591, 9324, 7913, 9323, 9326
8592, 7912, 9324, 9326, 9325
8593, 9144, 9329, 9327, 7653
8594, 9329, 9324, 7912, 9327
8595, 9328, 7913, 9324, 9329
8596, 7861, 9328, 9329, 9144
8597, 8682, 9331, 9142, 7663
8598, 9331, 9328, 7861, 9142
8599, 9330, 7913, 9328, 9331
8600, 7713, 9330, 9331, 8682
8601, 9229, 9332, 8680, 7596
8602, 9332, 9330, 7713, 8680
8603, 9323, 7913, 9330, 9332
8604, 7887, 9323, 9332, 9229
8605, 9217, 9336, 9333, 7661
8606, 9336, 9334, 7914, 9333
8607, 9335, 7915, 9334, 9336
8608, 7884, 9335, 9336, 9217
8609, 9327, 9338, 9227, 7653
8610, 9338, 9335, 7884, 9227
8611, 9337, 7915, 9335, 9338
8612, 7912, 9337, 9338, 9327
8613, 9112, 9340, 9325, 7634
8614, 9340, 9337, 7912, 9325
8615, 9339, 7915, 9337, 9340
8616, 7851, 9339, 9340, 9112
8617, 9341, 9342, 9110, 7654
8618, 9342, 9339, 7851, 9110
8619, 9334, 7915, 9339, 9342
8620, 7914, 9334, 9342, 9341
8621, 166, 9345, 9196, 165
8622, 9345, 9343, 7876, 9196
8623, 9344, 7917, 9343, 9345
8624, 167, 9344, 9345, 166
8625, 9151, 9347, 168, 169
8626, 9347, 9344, 167, 168
8627, 9346, 7917, 9344, 9347
8628, 7866, 9346, 9347, 9151
8629, 9349, 9350, 9161, 7463
8630, 9350, 9346, 7866, 9161
8631, 9348, 7917, 9346, 9350
8632, 7916, 9348, 9350, 9349
8633, 9198, 9352, 9351, 7414
8634, 9352, 9348, 7916, 9351
8635, 9343, 7917, 9348, 9352
8636, 7876, 9343, 9352, 9198
8637, 9260, 9356, 9353, 7622
8638, 9356, 9354, 7920, 9353
8639, 9355, 7921, 9354, 9356
8640, 7893, 9355, 9356, 9260
8641, 9358, 9359, 9258, 7574
8642, 9359, 9355, 7893, 9258
8643, 9357, 7921, 9355, 9359
8644, 7918, 9357, 9359, 9358
8645, 9362, 9363, 9360, 7595
8646, 9363, 9357, 7918, 9360
8647, 9361, 7921, 9357, 9363
8648, 7919, 9361, 9363, 9362
8649, 9365, 9366, 9364, 7642
8650, 9366, 9361, 7919, 9364
8651, 9354, 7921, 9361, 9366
8652, 7920, 9354, 9366, 9365
8653, 9351, 9370, 9367, 7414
8654, 9370, 9368, 7923, 9367
8655, 9369, 7924, 9368, 9370
8656, 7916, 9369, 9370, 9351
8657, 9314, 9372, 9349, 7463
8658, 9372, 9369, 7916, 9349
8659, 9371, 7924, 9369, 9372
8660, 7908, 9371, 9372, 9314
8661, 9374, 9375, 9312, 7489
8662, 9375, 9371, 7908, 9312
8663, 9373, 7924, 9371, 9375
8664, 7922, 9373, 9375, 9374
8665, 9377, 9378, 9376, 7521
8666, 9378, 9373, 7922, 9376
8667, 9368, 7924, 9373, 9378
8668, 7923, 9368, 9378, 9377
8669, 9382, 9383, 9379, 7481
8670, 9383, 9380, 7928, 9379
8671, 9381, 7929, 9380, 9383
8672, 7925, 9381, 9383, 9382
8673, 9386, 9387, 9384, 7541
8674, 9387, 9381, 7925, 9384
8675, 9385, 7929, 9381, 9387
8676, 7926, 9385, 9387, 9386
8677, 9390, 9391, 9388, 7582
8678, 9391, 9385, 7926, 9388
8679, 9389, 7929, 9385, 9391
8680, 7927, 9389, 9391, 9390
8681, 9393, 9394, 9392, 7524
8682, 9394, 9389, 7927, 9392
8683, 9380, 7929, 9389, 9394
8684, 7928, 9380, 9394, 9393
8685, 9398, 9399, 9395, 7522
8686, 9399, 9396, 7932, 9395
8687, 9397, 7933, 9396, 9399
8688, 7930, 9397, 9399, 9398
8689, 9255, 9402, 9400, 7574
8690, 9402, 9397, 7930, 9400
8691, 9401, 7933, 9397, 9402
8692, 7896, 9401, 9402, 9255
8693, 9404, 9405, 9269, 7554
8694, 9405, 9401, 7896, 9269
8695, 9403, 7933, 9401, 9405
8696, 7931, 9403, 9405, 9404
8697, 9407, 9408, 9406, 7484
8698, 9408, 9403, 7931, 9406
8699, 9396, 7933, 9403, 9408
8700, 7932, 9396, 9408, 9407
8701, 9412, 9413, 9409, 7526
8702, 9413, 9410, 7936, 9409
8703, 9411, 7937, 9410, 9413
8704, 7934, 9411, 9413, 9412
8705, 8925, 9416, 9414, 7483
8706, 9416, 9411, 7934, 9414
8707, 9415, 7937, 9411, 9416
8708, 7798, 9415, 9416, 8925
8709, 9418, 9419, 8935, 7564
8710, 9419, 9415, 7798, 8935
8711, 9417, 7937, 9415, 9419
8712, 7935, 9417, 9419, 9418
8713, 9421, 9422, 9420, 7583
8714, 9422, 9417, 7935, 9420
8715, 9410, 7937, 9417, 9422
8716, 7936, 9410, 9422, 9421
8717, 9425, 9426, 721, 720
8718, 9426, 9423, 722, 721
8719, 9424, 7941, 9423, 9426
8720, 7938, 9424, 9426, 9425
8721, 9429, 9430, 9427, 7475
8722, 9430, 9424, 7938, 9427
8723, 9428, 7941, 9424, 9430
8724, 7939, 9428, 9430, 9429
8725, 9433, 9434, 9431, 7413
8726, 9434, 9428, 7939, 9431
8727, 9432, 7941, 9428, 9434
8728, 7940, 9432, 9434, 9433
8729, 723, 9436, 9435, 58
8730, 9436, 9432, 7940, 9435
8731, 9423, 7941, 9432, 9436
8732, 722, 9423, 9436, 723
8733, 9439, 9440, 717, 59
8734, 9440, 9437, 718, 717
8735, 9438, 7944, 9437, 9440
8736, 7942, 9438, 9440, 9439
8737, 9443, 9444, 9441, 7443
8738, 9444, 9438, 7942, 9441
8739, 9442, 7944, 9438, 9444
8740, 7943, 9442, 9444, 9443
8741, 9427, 9447, 9445, 7475
8742, 9447, 9442, 7943, 9445
8743, 9446, 7944, 9442, 9447
8744, 7938, 9446, 9447, 9427
8745, 719, 9448, 9425, 720
8746, 9448, 9446, 7938, 9425
8747, 9437, 7944, 9446, 9448
8748, 718, 9437, 9448, 719
8749, 9451, 9452, 9213, 7426
8750, 9452, 9449, 7881, 9213
8751, 9450, 7946, 9449, 9452
8752, 7945, 9450, 9452, 9451
8753, 9093, 9455, 9453, 7469
8754, 9455, 9450, 7945, 9453
8755, 9454, 7946, 9450, 9455
8756, 7846, 9454, 9455, 9093
8757, 620, 9457, 9091, 621
8758, 9457, 9454, 7846, 9091
8759, 9456, 7946, 9454, 9457
8760, 619, 9456, 9457, 620
8761, 9215, 9458, 618, 45
8762, 9458, 9456, 619, 618
8763, 9449, 7946, 9456, 9458
8764, 7881, 9449, 9458, 9215
8765, 9461, 9462, 8892, 7415
8766, 9462, 9459, 7784, 8892
8767, 9460, 7949, 9459, 9462
8768, 7947, 9460, 9462, 9461
8769, 702, 9465, 9463, 55
8770, 9465, 9460, 7947, 9463
8771, 9464, 7949, 9460, 9465
8772, 701, 9464, 9465, 702
8773, 9467, 9468, 700, 699
8774, 9468, 9464, 701, 700
8775, 9466, 7949, 9464, 9468
8776, 7948, 9466, 9468, 9467
8777, 8894, 9470, 9469, 7471
8778, 9470, 9466, 7948, 9469
8779, 9459, 7949, 9466, 9470
8780, 7784, 9459, 9470, 8894
8781, 9474, 9475, 9471, 7577
8782, 9475, 9472, 7951, 9471
8783, 9473, 7952, 9472, 9475
8784, 7950, 9473, 9475, 9474
8785, 9360, 9478, 9476, 7595
8786, 9478, 9473, 7950, 9476
8787, 9477, 7952, 9473, 9478
8788, 7918, 9477, 9478, 9360
8789, 9400, 9480, 9358, 7574
8790, 9480, 9477, 7918, 9358
8791, 9479, 7952, 9477, 9480
8792, 7930, 9479, 9480, 9400
8793, 9481, 9482, 9398, 7522
8794, 9482, 9479, 7930, 9398
8795, 9472, 7952, 9479, 9482
8796, 7951, 9472, 9482, 9481
8797, 9486, 9487, 9483, 7625
8798, 9487, 9484, 7956, 9483
8799, 9485, 7957, 9484, 9487
8800, 7953, 9485, 9487, 9486
8801, 9490, 9491, 9488, 7580
8802, 9491, 9485, 7953, 9488
8803, 9489, 7957, 9485, 9491
8804, 7954, 9489, 9491, 9490
8805, 9494, 9495, 9492, 7545
8806, 9495, 9489, 7954, 9492
8807, 9493, 7957, 9489, 9495
8808, 7955, 9493, 9495, 9494
8809, 9497, 9498, 9496, 7594
8810, 9498, 9493, 7955, 9496
8811, 9484, 7957, 9493, 9498
8812, 7956, 9484, 9498, 9497
8813, 9132, 9502, 9499, 7600
8814, 9502, 9500, 7959, 9499
8815, 9501, 7960, 9500, 9502
8816, 7857, 9501, 9502, 9132
8817, 9271, 9504, 9130, 7566
8818, 9504, 9501, 7857, 9130
8819, 9503, 7960, 9501, 9504
8820, 7899, 9503, 9504, 9271
8821, 9506, 9507, 9281, 7510
8822, 9507, 9503, 7899, 9281
8823, 9505, 7960, 9503, 9507
8824, 7958, 9505, 9507, 9506
8825, 9509, 9510, 9508, 7549
8826, 9510, 9505, 7958, 9508
8827, 9500, 7960, 9505, 9510
8828, 7959, 9500, 9510, 9509
8829, 158, 9513, 9028, 157
8830, 9513, 9511, 7827, 9028
8831, 9512, 7962, 9511, 9513
8832, 159, 9512, 9513, 158
8833, 9191, 9515, 160, 161
8834, 9515, 9512, 159, 160
8835, 9514, 7962, 9512, 9515
8836, 7878, 9514, 9515, 9191
8837, 9517, 9518, 9203, 7464
8838, 9518, 9514, 7878, 9203
8839, 9516, 7962, 9514, 9518
8840, 7961, 9516, 9518, 9517
8841, 9030, 9520, 9519, 7420
8842, 9520, 9516, 7961, 9519
8843, 9511, 7962, 9516, 9520
8844, 7827, 9511, 9520, 9030
8845, 9435, 9523, 710, 58
8846, 9523, 9521, 711, 710
8847, 9522, 7965, 9521, 9523
8848, 7940, 9522, 9523, 9435
8849, 9525, 9526, 9433, 7413
8850, 9526, 9522, 7940, 9433
8851, 9524, 7965, 9522, 9526
8852, 7963, 9524, 9526, 9525
8853, 9529, 9530, 9527, 7470
8854, 9530, 9524, 7963, 9527
8855, 9528, 7965, 9524, 9530
8856, 7964, 9528, 9530, 9529
8857, 712, 9532, 9531, 713
8858, 9532, 9528, 7964, 9531
8859, 9521, 7965, 9528, 9532
8860, 711, 9521, 9532, 712
8861, 8798, 9536, 9533, 7569
8862, 9536, 9534, 7968, 9533
8863, 9535, 7969, 9534, 9536
8864, 7752, 9535, 9536, 8798
8865, 9538, 9539, 8796, 7609
8866, 9539, 9535, 7752, 8796
8867, 9537, 7969, 9535, 9539
8868, 7966, 9537, 9539, 9538
8869, 9542, 9543, 9540, 7544
8870, 9543, 9537, 7966, 9540
8871, 9541, 7969, 9537, 9543
8872, 7967, 9541, 9543, 9542
8873, 9545, 9546, 9544, 7552
8874, 9546, 9541, 7967, 9544
8875, 9534, 7969, 9541, 9546
8876, 7968, 9534, 9546, 9545
8877, 9550, 9551, 9547, 7451
8878, 9551, 9548, 7973, 9547
8879, 9549, 7974, 9548, 9551
8880, 7970, 9549, 9551, 9550
8881, 9554, 9555, 9552, 7551
8882, 9555, 9549, 7970, 9552
8883, 9553, 7974, 9549, 9555
8884, 7971, 9553, 9555, 9554
8885, 9558, 9559, 9556, 7520
8886, 9559, 9553, 7971, 9556
8887, 9557, 7974, 9553, 9559
8888, 7972, 9557, 9559, 9558
8889, 9561, 9562, 9560, 7488
8890, 9562, 9557, 7972, 9560
8891, 9548, 7974, 9557, 9562
8892, 7973, 9548, 9562, 9561
8893, 9565, 9566, 9525, 7413
8894, 9566, 9563, 7963, 9525
8895, 9564, 7977, 9563, 9566
8896, 7975, 9564, 9566, 9565
8897, 8901, 9569, 9567, 7506
8898, 9569, 9564, 7975, 9567
8899, 9568, 7977, 9564, 9569
8900, 7790, 9568, 9569, 8901
8901, 9571, 9572, 8911, 7529
8902, 9572, 9568, 7790, 8911
8903, 9570, 7977, 9568, 9572
8904, 7976, 9570, 9572, 9571
8905, 9527, 9574, 9573, 7470
8906, 9574, 9570, 7976, 9573
8907, 9563, 7977, 9570, 9574
8908, 7963, 9563, 9574, 9527
8909, 9248, 9578, 9575, 7427
8910, 9578, 9576, 7978, 9575
8911, 9577, 7979, 9576, 9578
8912, 7889, 9577, 9578, 9248
8913, 716, 9580, 9246, 57
8914, 9580, 9577, 7889, 9246
8915, 9579, 7979, 9577, 9580
8916, 715, 9579, 9580, 716
8917, 9531, 9582, 714, 713
8918, 9582, 9579, 715, 714
8919, 9581, 7979, 9579, 9582
8920, 7964, 9581, 9582, 9531
8921, 9583, 9584, 9529, 7470
8922, 9584, 9581, 7964, 9529
8923, 9576, 7979, 9581, 9584
8924, 7978, 9576, 9584, 9583
8925, 9588, 9589, 9585, 7430
8926, 9589, 9586, 7981, 9585
8927, 9587, 7982, 9586, 9589
8928, 7980, 9587, 9589, 9588
8929, 662, 9592, 9590, 663
8930, 9592, 9587, 7980, 9590
8931, 9591, 7982, 9587, 9592
8932, 661, 9591, 9592, 662
8933, 142, 9594, 660, 51
8934, 9594, 9591, 661, 660
8935, 9593, 7982, 9591, 9594
8936, 143, 9593, 9594, 142
8937, 9595, 9596, 144, 145
8938, 9596, 9593, 143, 144
8939, 9586, 7982, 9593, 9596
8940, 7981, 9586, 9596, 9595
8941, 9600, 9601, 9597, 7422
8942, 9601, 9598, 7985, 9597
8943, 9599, 7986, 9598, 9601
8944, 7983, 9599, 9601, 9600
8945, 8733, 9604, 9602, 7459
8946, 9604, 9599, 7983, 9602
8947, 9603, 7986, 9599, 9604
8948, 7734, 9603, 9604, 8733
8949, 9606, 9607, 8743, 7539
8950, 9607, 9603, 7734, 8743
8951, 9605, 7986, 9603, 9607
8952, 7984, 9605, 9607, 9606
8953, 9609, 9610, 9608, 7496
8954, 9610, 9605, 7984, 9608
8955, 9598, 7986, 9605, 9610
8956, 7985, 9598, 9610, 9609
8957, 9613, 9614, 632, 47
8958, 9614, 9611, 633, 632
8959, 9612, 7990, 9611, 9614
8960, 7987, 9612, 9614, 9613
8961, 9617, 9618, 9615, 7417
8962, 9618, 9612, 7987, 9615
8963, 9616, 7990, 9612, 9618
8964, 7988, 9616, 9618, 9617
8965, 9621, 9622, 9619, 7472
8966, 9622, 9616, 7988, 9619
8967, 9620, 7990, 9616, 9622
8968, 7989, 9620, 9622, 9621
8969, 634, 9624, 9623, 635
8970, 9624, 9620, 7989, 9623
8971, 9611, 7990, 9620, 9624
8972, 633, 9611, 9624, 634
8973, 684, 9628, 9625, 685
8974, 9628, 9626, 7993, 9625
8975, 9627, 7994, 9626, 9628
8976, 683, 9627, 9628, 684
8977, 9630, 9631, 682, 54
8978, 9631, 9627, 683, 682
8979, 9629, 7994, 9627, 9631
8980, 7991, 9629, 9631, 9630
8981, 9634, 9635, 9632, 7444
8982, 9635, 9629, 7991, 9632
8983, 9633, 7994, 9629, 9635
8984, 7992, 9633, 9635, 9634
8985, 9637, 9638, 9636, 7473
8986, 9638, 9633, 7992, 9636
8987, 9626, 7994, 9633, 9638
8988, 7993, 9626, 9638, 9637
8989, 9642, 9643, 9639, 7606
8990, 9643, 9640, 7998, 9639
8991, 9641, 7999, 9640, 9643
8992, 7995, 9641, 9643, 9642
8993, 9646, 9647, 9644, 7640
8994, 9647, 9641, 7995, 9644
8995, 9645, 7999, 9641, 9647
8996, 7996, 9645, 9647, 9646
8997, 9650, 9651, 9648, 7612
8998, 9651, 9645, 7996, 9648
8999, 9649, 7999, 9645, 9651
9000, 7997, 9649, 9651, 9650
9001, 9653, 9654, 9652, 7590
9002, 9654, 9649, 7997, 9652
9003, 9640, 7999, 9649, 9654
9004, 7998, 9640, 9654, 9653
9005, 9657, 9658, 8808, 7648
9006, 9658, 9655, 7756, 8808
9007, 9656, 8003, 9655, 9658
9008, 8000, 9656, 9658, 9657
9009, 9661, 9662, 9659, 7615
9010, 9662, 9656, 8000, 9659
9011, 9660, 8003, 9656, 9662
9012, 8001, 9660, 9662, 9661
9013, 9665, 9666, 9663, 7631
9014, 9666, 9660, 8001, 9663
9015, 9664, 8003, 9660, 9666
9016, 8002, 9664, 9666, 9665
9017, 8810, 9668, 9667, 7657
9018, 9668, 9664, 8002, 9667
9019, 9655, 8003, 9664, 9668
9020, 7756, 9655, 9668, 8810
9021, 9547, 9672, 9669, 7451
9022, 9672, 9670, 8004, 9669
9023, 9671, 8005, 9670, 9672
9024, 7973, 9671, 9672, 9547
9025, 8690, 9674, 9561, 7488
9026, 9674, 9671, 7973, 9561
9027, 9673, 8005, 9671, 9674
9028, 7716, 9673, 9674, 8690
9029, 9019, 9676, 8688, 7437
9030, 9676, 9673, 7716, 8688
9031, 9675, 8005, 9673, 9676
9032, 7828, 9675, 9676, 9019
9033, 9677, 9678, 9031, 7420
9034, 9678, 9675, 7828, 9031
9035, 9670, 8005, 9675, 9678
9036, 8004, 9670, 9678, 9677
9037, 9682, 9683, 9679, 7490
9038, 9683, 9680, 8008, 9679
9039, 9681, 8009, 9680, 9683
9040, 8006, 9681, 9683, 9682
9041, 9211, 9686, 9684, 7426
9042, 9686, 9681, 8006, 9684
9043, 9685, 8009, 9681, 9686
9044, 7880, 9685, 9686, 9211
9045, 9688, 9689, 9209, 7468
9046, 9689, 9685, 7880, 9209
9047, 9687, 8009, 9685, 9689
9048, 8007, 9687, 9689, 9688
9049, 9691, 9692, 9690, 7530
9050, 9692, 9687, 8007, 9690
9051, 9680, 8009, 9687, 9692
9052, 8008, 9680, 9692, 9691
9053, 9696, 9697, 9693, 7449
9054, 9697, 9694, 8011, 9693
9055, 9695, 8012, 9694, 9697
9056, 8010, 9695, 9697, 9696
9057, 9320, 9700, 9698, 7499
9058, 9700, 9695, 8010, 9698
9059, 9699, 8012, 9695, 9700
9060, 7909, 9699, 9700, 9320
9061, 9016, 9702, 9318, 7436
9062, 9702, 9699, 7909, 9318
9063, 9701, 8012, 9699, 9702
9064, 7823, 9701, 9702, 9016
9065, 9703, 9704, 9014, 7435
9066, 9704, 9701, 7823, 9014
9067, 9694, 8012, 9701, 9704
9068, 8011, 9694, 9704, 9703
9069, 9707, 9708, 639, 48
9070, 9708, 9705, 640, 639
9071, 9706, 8015, 9705, 9708
9072, 8013, 9706, 9708, 9707
9073, 8846, 9711, 9709, 7445
9074, 9711, 9706, 8013, 9709
9075, 9710, 8015, 9706, 9711
9076, 7768, 9710, 9711, 8846
9077, 9713, 9714, 8844, 7474
9078, 9714, 9710, 7768, 8844
9079, 9712, 8015, 9710, 9714
9080, 8014, 9712, 9714, 9713
9081, 641, 9716, 9715, 642
9082, 9716, 9712, 8014, 9715
9083, 9705, 8015, 9712, 9716
9084, 640, 9705, 9716, 641
9085, 9720, 9721, 9717, 7501
9086, 9721, 9718, 8019, 9717
9087, 9719, 8020, 9718, 9721
9088, 8016, 9719, 9721, 9720
9089, 9724, 9725, 9722, 7442
9090, 9725, 9719, 8016, 9722
9091, 9723, 8020, 9719, 9725
9092, 8017, 9723, 9725, 9724
9093, 9728, 9729, 9726, 7472
9094, 9729, 9723, 8017, 9726
9095, 9727, 8020, 9723, 9729
9096, 8018, 9727, 9729, 9728
9097, 9731, 9732, 9730, 7524
9098, 9732, 9727, 8018, 9730
9099, 9718, 8020, 9727, 9732
9100, 8019, 9718, 9732, 9731
9101, 9736, 9737, 9733, 7597
9102, 9737, 9734, 8023, 9733
9103, 9735, 8024, 9734, 9737
9104, 8021, 9735, 9737, 9736
9105, 9740, 9741, 9738, 7572
9106, 9741, 9735, 8021, 9738
9107, 9739, 8024, 9735, 9741
9108, 8022, 9739, 9741, 9740
9109, 9556, 9744, 9742, 7520
9110, 9744, 9739, 8022, 9742
9111, 9743, 8024, 9739, 9744
9112, 7971, 9743, 9744, 9556
9113, 9745, 9746, 9554, 7551
9114, 9746, 9743, 7971, 9554
9115, 9734, 8024, 9743, 9746
9116, 8023, 9734, 9746, 9745
9117, 9750, 9751, 9747, 7480
9118, 9751, 9748, 8027, 9747
9119, 9749, 8028, 9748, 9751
9120, 8025, 9749, 9751, 9750
9121, 9297, 9754, 9752, 7441
9122, 9754, 9749, 8025, 9752
9123, 9753, 8028, 9749, 9754
9124, 7906, 9753, 9754, 9297
9125, 9756, 9757, 9307, 7467
9126, 9757, 9753, 7906, 9307
9127, 9755, 8028, 9753, 9757
9128, 8026, 9755, 9757, 9756
9129, 9759, 9760, 9758, 7531
9130, 9760, 9755, 8026, 9758
9131, 9748, 8028, 9755, 9760
9132, 8027, 9748, 9760, 9759
9133, 182, 9763, 9037, 181
9134, 9763, 9761, 7830, 9037
9135, 9762, 8030, 9761, 9763
9136, 183, 9762, 9763, 182
9137, 9283, 9765, 184, 185
9138, 9765, 9762, 183, 184
9139, 9764, 8030, 9762, 9765
9140, 7903, 9764, 9765, 9283
9141, 9767, 9768, 9295, 7461
9142, 9768, 9764, 7903, 9295
9143, 9766, 8030, 9764, 9768
9144, 8029, 9766, 9768, 9767
9145, 9039, 9770, 9769, 7423
9146, 9770, 9766, 8029, 9769
9147, 9761, 8030, 9766, 9770
9148, 7830, 9761, 9770, 9039
9149, 698, 9773, 9467, 699
9150, 9773, 9771, 7948, 9467
9151, 9772, 8032, 9771, 9773
9152, 697, 9772, 9773, 698
9153, 9302, 9775, 696, 56
9154, 9775, 9772, 697, 696
9155, 9774, 8032, 9772, 9775
9156, 7905, 9774, 9775, 9302
9157, 9777, 9778, 9300, 7441
9158, 9778, 9774, 7905, 9300
9159, 9776, 8032, 9774, 9778
9160, 8031, 9776, 9778, 9777
9161, 9469, 9780, 9779, 7471
9162, 9780, 9776, 8031, 9779
9163, 9771, 8032, 9776, 9780
9164, 7948, 9771, 9780, 9469
9165, 9163, 9783, 9724, 7442
9166, 9783, 9781, 8017, 9724
9167, 9782, 8033, 9781, 9783
9168, 7870, 9782, 9783, 9163
9169, 638, 9785, 9175, 46
9170, 9785, 9782, 7870, 9175
9171, 9784, 8033, 9782, 9785
9172, 637, 9784, 9785, 638
9173, 9623, 9787, 636, 635
9174, 9787, 9784, 637, 636
9175, 9786, 8033, 9784, 9787
9176, 7989, 9786, 9787, 9623
9177, 9726, 9788, 9621, 7472
9178, 9788, 9786, 7989, 9621
9179, 9781, 8033, 9786, 9788
9180, 8017, 9781, 9788, 9726
9181, 9791, 9792, 9617, 7417
9182, 9792, 9789, 7988, 9617
9183, 9790, 8035, 9789, 9792
9184, 8034, 9790, 9792, 9791
9185, 9379, 9795, 9793, 7481
9186, 9795, 9790, 8034, 9793
9187, 9794, 8035, 9790, 9795
9188, 7928, 9794, 9795, 9379
9189, 9730, 9797, 9393, 7524
9190, 9797, 9794, 7928, 9393
9191, 9796, 8035, 9794, 9797
9192, 8018, 9796, 9797, 9730
9193, 9619, 9798, 9728, 7472
9194, 9798, 9796, 8018, 9728
9195, 9789, 8035, 9796, 9798
9196, 7988, 9789, 9798, 9619
9197, 9802, 9803, 9799, 7553
9198, 9803, 9800, 8039, 9799
9199, 9801, 8040, 9800, 9803
9200, 8036, 9801, 9803, 9802
9201, 9806, 9807, 9804, 7518
9202, 9807, 9801, 8036, 9804
9203, 9805, 8040, 9801, 9807
9204, 8037, 9805, 9807, 9806
9205, 9810, 9811, 9808, 7573
9206, 9811, 9805, 8037, 9808
9207, 9809, 8040, 9805, 9811
9208, 8038, 9809, 9811, 9810
9209, 9813, 9814, 9812, 7611
9210, 9814, 9809, 8038, 9812
9211, 9800, 8040, 9809, 9814
9212, 8039, 9800, 9814, 9813
9213, 9818, 9819, 9815, 7519
9214, 9819, 9816, 8044, 9815
9215, 9817, 8045, 9816, 9819
9216, 8041, 9817, 9819, 9818
9217, 9822, 9823, 9820, 7579
9218, 9823, 9817, 8041, 9820
9219, 9821, 8045, 9817, 9823
9220, 8042, 9821, 9823, 9822
9221, 9826, 9827, 9824, 7555
9222, 9827, 9821, 8042, 9824
9223, 9825, 8045, 9821, 9827
9224, 8043, 9825, 9827, 9826
9225, 9829, 9830, 9828, 7485
9226, 9830, 9825, 8043, 9828
9227, 9816, 8045, 9825, 9830
9228, 8044, 9816, 9830, 9829
9229, 9834, 9835, 9831, 7540
9230, 9835, 9832, 8048, 9831
9231, 9833, 8049, 9832, 9835
9232, 8046, 9833, 9835, 9834
9233, 9679, 9838, 9836, 7490
9234, 9838, 9833, 8046, 9836
9235, 9837, 8049, 9833, 9838
9236, 8008, 9837, 9838, 9679
9237, 9840, 9841, 9691, 7530
9238, 9841, 9837, 8008, 9691
9239, 9839, 8049, 9837, 9841
9240, 8047, 9839, 9841, 9840
9241, 9843, 9844, 9842, 7589
9242, 9844, 9839, 8047, 9842
9243, 9832, 8049, 9839, 9844
9244, 8048, 9832, 9844, 9843
9245, 9847, 9848, 657, 656
9246, 9848, 9845, 658, 657
9247, 9846, 8053, 9845, 9848
9248, 8050, 9846, 9848, 9847
9249, 9851, 9852, 9849, 7466
9250, 9852, 9846, 8050, 9849
9251, 9850, 8053, 9846, 9852
9252, 8051, 9850, 9852, 9851
9253, 9855, 9856, 9853, 7421
9254, 9856, 9850, 8051, 9853
9255, 9854, 8053, 9850, 9856
9256, 8052, 9854, 9856, 9855
9257, 659, 9858, 9857, 49
9258, 9858, 9854, 8052, 9857
9259, 9845, 8053, 9854, 9858
9260, 658, 9845, 9858, 659
9261, 648, 9862, 9859, 649
9262, 9862, 9860, 8055, 9859
9263, 9861, 8056, 9860, 9862
9264, 647, 9861, 9862, 648
9265, 9857, 9864, 646, 49
9266, 9864, 9861, 647, 646
9267, 9863, 8056, 9861, 9864
9268, 8052, 9863, 9864, 9857
9269, 9866, 9867, 9855, 7421
9270, 9867, 9863, 8052, 9855
9271, 9865, 8056, 9863, 9867
9272, 8054, 9865, 9867, 9866
9273, 9869, 9870, 9868, 7477
9274, 9870, 9865, 8054, 9868
9275, 9860, 8056, 9865, 9870
9276, 8055, 9860, 9870, 9869
9277, 9874, 9875, 9871, 7479
9278, 9875, 9872, 8059, 9871
9279, 9873, 8060, 9872, 9875
9280, 8057, 9873, 9875, 9874
9281, 8937, 9878, 9876, 7457
9282, 9878, 9873, 8057, 9876
9283, 9877, 8060, 9873, 9878
9284, 7802, 9877, 9878, 8937
9285, 9880, 9881, 8947, 7535
9286, 9881, 9877, 7802, 8947
9287, 9879, 8060, 9877, 9881
9288, 8058, 9879, 9881, 9880
9289, 9883, 9884, 9882, 7494
9290, 9884, 9879, 8058, 9882
9291, 9872, 8060, 9879, 9884
9292, 8059, 9872, 9884, 9883
9293, 691, 9888, 9885, 692
9294, 9888, 9886, 8062, 9885
9295, 9887, 8063, 9886, 9888
9296, 690, 9887, 9888, 691
9297, 9463, 9890, 689, 55
9298, 9890, 9887, 690, 689
9299, 9889, 8063, 9887, 9890
9300, 7947, 9889, 9890, 9463
9301, 9892, 9893, 9461, 7415
9302, 9893, 9889, 7947, 9461
9303, 9891, 8063, 9889, 9893
9304, 8061, 9891, 9893, 9892
9305, 9895, 9896, 9894, 7476
9306, 9896, 9891, 8061, 9894
9307, 9886, 8063, 9891, 9896
9308, 8062, 9886, 9896, 9895
9309, 9900, 9901, 9897, 7606
9310, 9901, 9898, 8066, 9897
9311, 9899, 8067, 9898, 9901
9312, 8064, 9899, 9901, 9900
9313, 9831, 9904, 9902, 7540
9314, 9904, 9899, 8064, 9902
9315, 9903, 8067, 9899, 9904
9316, 8048, 9903, 9904, 9831
9317, 9906, 9907, 9843, 7589
9318, 9907, 9903, 8048, 9843
9319, 9905, 8067, 9903, 9907
9320, 8065, 9905, 9907, 9906
9321, 9909, 9910, 9908, 7626
9322, 9910, 9905, 8065, 9908
9323, 9898, 8067, 9905, 9910
9324, 8066, 9898, 9910, 9909
9325, 9913, 9914, 8880, 7558
9326, 9914, 9911, 7780, 8880
9327, 9912, 8069, 9911, 9914
9328, 8068, 9912, 9914, 9913
9329, 9717, 9917, 9915, 7501
9330, 9917, 9912, 8068, 9915
9331, 9916, 8069, 9912, 9917
9332, 8019, 9916, 9917, 9717
9333, 9392, 9919, 9731, 7524
9334, 9919, 9916, 8019, 9731
9335, 9918, 8069, 9916, 9919
9336, 7927, 9918, 9919, 9392
9337, 8882, 9920, 9390, 7582
9338, 9920, 9918, 7927, 9390
9339, 9911, 8069, 9918, 9920
9340, 7780, 9911, 9920, 8882
9341, 9483, 9924, 9921, 7625
9342, 9924, 9922, 8071, 9921
9343, 9923, 8072, 9922, 9924
9344, 7956, 9923, 9924, 9483
9345, 9926, 9927, 9497, 7594
9346, 9927, 9923, 7956, 9497
9347, 9925, 8072, 9923, 9927
9348, 8070, 9925, 9927, 9926
9349, 8982, 9930, 9928, 7662
9350, 9930, 9925, 8070, 9928
9351, 9929, 8072, 9925, 9930
9352, 7813, 9929, 9930, 8982
9353, 9931, 9932, 8980, 7645
9354, 9932, 9929, 7813, 8980
9355, 9922, 8072, 9929, 9932
9356, 8071, 9922, 9932, 9931
9357, 8850, 9936, 9933, 7503
9358, 9936, 9934, 8075, 9933
9359, 9935, 8076, 9934, 9936
9360, 7769, 9935, 9936, 8850
9361, 9938, 9939, 8848, 7445
9362, 9939, 9935, 7769, 8848
9363, 9937, 8076, 9935, 9939
9364, 8073, 9937, 9939, 9938
9365, 9942, 9943, 9940, 7477
9366, 9943, 9937, 8073, 9940
9367, 9941, 8076, 9937, 9943
9368, 8074, 9941, 9943, 9942
9369, 9945, 9946, 9944, 7526
9370, 9946, 9941, 8074, 9944
9371, 9934, 8076, 9941, 9946
9372, 8075, 9934, 9946, 9945
9373, 9950, 9951, 9947, 7424
9374, 9951, 9948, 8078, 9947
9375, 9949, 8079, 9948, 9951
9376, 8077, 9949, 9951, 9950
9377, 688, 9954, 9952, 52
9378, 9954, 9949, 8077, 9952
9379, 9953, 8079, 9949, 9954
9380, 687, 9953, 9954, 688
9381, 9625, 9956, 686, 685
9382, 9956, 9953, 687, 686
9383, 9955, 8079, 9953, 9956
9384, 7993, 9955, 9956, 9625
9385, 9957, 9958, 9637, 7473
9386, 9958, 9955, 7993, 9637
9387, 9948, 8079, 9955, 9958
9388, 8078, 9948, 9958, 9957
9389, 9961, 9962, 9720, 7501
9390, 9962, 9959, 8016, 9720
9391, 9960, 8081, 9959, 9962
9392, 8080, 9960, 9962, 9961
9393, 9690, 9965, 9963, 7530
9394, 9965, 9960, 8080, 9963
9395, 9964, 8081, 9960, 9965
9396, 8007, 9964, 9965, 9690
9397, 9168, 9967, 9688, 7468
9398, 9967, 9964, 8007, 9688
9399, 9966, 8081, 9964, 9967
9400, 7868, 9966, 9967, 9168
9401, 9722, 9968, 9166, 7442
9402, 9968, 9966, 7868, 9166
9403, 9959, 8081, 9966, 9968
9404, 8016, 9959, 9968, 9722
9405, 9836, 9972, 9969, 7490
9406, 9972, 9970, 8084, 9969
9407, 9971, 8085, 9970, 9972
9408, 8046, 9971, 9972, 9836
9409, 9974, 9975, 9834, 7540
9410, 9975, 9971, 8046, 9834
9411, 9973, 8085, 9971, 9975
9412, 8082, 9973, 9975, 9974
9413, 9978, 9979, 9976, 7586
9414, 9979, 9973, 8082, 9976
9415, 9977, 8085, 9973, 9979
9416, 8083, 9977, 9979, 9978
9417, 9981, 9982, 9980, 7500
9418, 9982, 9977, 8083, 9980
9419, 9970, 8085, 9977, 9982
9420, 8084, 9970, 9982, 9981
9421, 9986, 9987, 9983, 7482
9422, 9987, 9984, 8089, 9983
9423, 9985, 8090, 9984, 9987
9424, 8086, 9985, 9987, 9986
9425, 9990, 9991, 9988, 7444
9426, 9991, 9985, 8086, 9988
9427, 9989, 8090, 9985, 9991
9428, 8087, 9989, 9991, 9990
9429, 9994, 9995, 9992, 7476
9430, 9995, 9989, 8087, 9992
9431, 9993, 8090, 9989, 9995
9432, 8088, 9993, 9995, 9994
9433, 9997, 9998, 9996, 7525
9434, 9998, 9993, 8088, 9996
9435, 9984, 8090, 9993, 9998
9436, 8089, 9984, 9998, 9997
9437, 9615, 10002, 9999, 7417
9438, 10002, 10000, 8091, 9999
9439, 10001, 8092, 10000, 10002
9440, 7987, 10001, 10002, 9615
9441, 645, 10004, 9613, 47
9442, 10004, 10001, 7987, 9613
9443, 10003, 8092, 10001, 10004
9444, 644, 10003, 10004, 645
9445, 9715, 10006, 643, 642
9446, 10006, 10003, 644, 643
9447, 10005, 8092, 10003, 10006
9448, 8014, 10005, 10006, 9715
9449, 10007, 10008, 9713, 7474
9450, 10008, 10005, 8014, 9713
9451, 10000, 8092, 10005, 10008
9452, 8091, 10000, 10008, 10007
9453, 9519, 10011, 9677, 7420
9454, 10011, 10009, 8004, 9677
9455, 10010, 8095, 10009, 10011
9456, 7961, 10010, 10011, 9519
9457, 10013, 10014, 9517, 7464
9458, 10014, 10010, 7961, 9517
9459, 10012, 8095, 10010, 10014
9460, 8093, 10012, 10014, 10013
9461, 10017, 10018, 10015, 7498
9462, 10018, 10012, 8093, 10015
9463, 10016, 8095, 10012, 10018
9464, 8094, 10016, 10018, 10017
9465, 9669, 10020, 10019, 7451
9466, 10020, 10016, 8094, 10019
9467, 10009, 8095, 10016, 10020
9468, 8004, 10009, 10020, 9669
9469, 10024, 10025, 10021, 7525
9470, 10025, 10022, 8099, 10021
9471, 10023, 8100, 10022, 10025
9472, 8096, 10023, 10025, 10024
9473, 10028, 10029, 10026, 7505
9474, 10029, 10023, 8096, 10026
9475, 10027, 8100, 10023, 10029
9476, 8097, 10027, 10029, 10028
9477, 10032, 10033, 10030, 7544
9478, 10033, 10027, 8097, 10030
9479, 10031, 8100, 10027, 10033
9480, 8098, 10031, 10033, 10032
9481, 10035, 10036, 10034, 7584
9482, 10036, 10031, 8098, 10034
9483, 10022, 8100, 10031, 10036
9484, 8099, 10022, 10036, 10035
9485, 8889, 10039, 9892, 7415
9486, 10039, 10037, 8061, 9892
9487, 10038, 8101, 10037, 10039
9488, 7786, 10038, 10039, 8889
9489, 10026, 10041, 8899, 7505
9490, 10041, 10038, 7786, 8899
9491, 10040, 8101, 10038, 10041
9492, 8096, 10040, 10041, 10026
9493, 9996, 10043, 10024, 7525
9494, 10043, 10040, 8096, 10024
9495, 10042, 8101, 10040, 10043
9496, 8088, 10042, 10043, 9996
9497, 9894, 10044, 9994, 7476
9498, 10044, 10042, 8088, 9994
9499, 10037, 8101, 10042, 10044
9500, 8061, 10037, 10044, 9894
9501, 9709, 10047, 9938, 7445
9502, 10047, 10045, 8073, 9938
9503, 10046, 8102, 10045, 10047
9504, 8013, 10046, 10047, 9709
9505, 652, 10049, 9707, 48
9506, 10049, 10046, 8013, 9707
9507, 10048, 8102, 10046, 10049
9508, 651, 10048, 10049, 652
9509, 9859, 10051, 650, 649
9510, 10051, 10048, 651, 650
9511, 10050, 8102, 10048, 10051
9512, 8055, 10050, 10051, 9859
9513, 9940, 10052, 9869, 7477
9514, 10052, 10050, 8055, 9869
9515, 10045, 8102, 10050, 10052
9516, 8073, 10045, 10052, 9940
9517, 10056, 10057, 10053, 7542
9518, 10057, 10054, 8105, 10053
9519, 10055, 8106, 10054, 10057
9520, 8103, 10055, 10057, 10056
9521, 9177, 10060, 10058, 7593
9522, 10060, 10055, 8103, 10058
9523, 10059, 8106, 10055, 10060
9524, 7874, 10059, 10060, 9177
9525, 10062, 10063, 9189, 7568
9526, 10063, 10059, 7874, 9189
9527, 10061, 8106, 10059, 10063
9528, 8104, 10061, 10063, 10062
9529, 10065, 10066, 10064, 7512
9530, 10066, 10061, 8104, 10064
9531, 10054, 8106, 10061, 10066
9532, 8105, 10054, 10066, 10065
9533, 10070, 10071, 10067, 7555
9534, 10071, 10068, 8109, 10067
9535, 10069, 8110, 10068, 10071
9536, 8107, 10069, 10071, 10070
9537, 9069, 10074, 10072, 7607
9538, 10074, 10069, 8107, 10072
9539, 10073, 8110, 10069, 10074
9540, 7839, 10073, 10074, 9069
9541, 10076, 10077, 9067, 7581
9542, 10077, 10073, 7839, 9067
9543, 10075, 8110, 10073, 10077
9544, 8108, 10075, 10077, 10076
9545, 10079, 10080, 10078, 7511
9546, 10080, 10075, 8108, 10078
9547, 10068, 8110, 10075, 10080
9548, 8109, 10068, 10080, 10079
9549, 9632, 10083, 9990, 7444
9550, 10083, 10081, 8087, 9990
9551, 10082, 8111, 10081, 10083
9552, 7991, 10082, 10083, 9632
9553, 695, 10085, 9630, 54
9554, 10085, 10082, 7991, 9630
9555, 10084, 8111, 10082, 10085
9556, 694, 10084, 10085, 695
9557, 9885, 10087, 693, 692
9558, 10087, 10084, 694, 693
9559, 10086, 8111, 10084, 10087
9560, 8062, 10086, 10087, 9885
9561, 9992, 10088, 9895, 7476
9562, 10088, 10086, 8062, 9895
9563, 10081, 8111, 10086, 10088
9564, 8087, 10081, 10088, 9992
9565, 190, 10091, 9288, 189
9566, 10091, 10089, 7901, 9288
9567, 10090, 8113, 10089, 10091
9568, 191, 10090, 10091, 190
9569, 681, 10093, 192, 53
9570, 10093, 10090, 191, 192
9571, 10092, 8113, 10090, 10093
9572, 680, 10092, 10093, 681
9573, 10095, 10096, 679, 678
9574, 10096, 10092, 680, 679
9575, 10094, 8113, 10092, 10096
9576, 8112, 10094, 10096, 10095
9577, 9290, 10098, 10097, 7428
9578, 10098, 10094, 8112, 10097
9579, 10089, 8113, 10094, 10098
9580, 7901, 10089, 10098, 9290
9581, 9108, 10102, 10099, 7654
9582, 10102, 10100, 8116, 10099
9583, 10101, 8117, 10100, 10102
9584, 7850, 10101, 10102, 9108
9585, 10104, 10105, 9106, 7646
9586, 10105, 10101, 7850, 9106
9587, 10103, 8117, 10101, 10105
9588, 8114, 10103, 10105, 10104
9589, 10108, 10109, 10106, 7658
9590, 10109, 10103, 8114, 10106
9591, 10107, 8117, 10103, 10109
9592, 8115, 10107, 10109, 10108
9593, 10111, 10112, 10110, 7667
9594, 10112, 10107, 8115, 10110
9595, 10100, 8117, 10107, 10112
9596, 8116, 10100, 10112, 10111
9597, 10116, 10117, 10113, 7552
9598, 10117, 10114, 8120, 10113
9599, 10115, 8121, 10114, 10117
9600, 8118, 10115, 10117, 10116
9601, 9747, 10120, 10118, 7480
9602, 10120, 10115, 8118, 10118
9603, 10119, 8121, 10115, 10120
9604, 8027, 10119, 10120, 9747
9605, 10122, 10123, 9759, 7531
9606, 10123, 10119, 8027, 9759
9607, 10121, 8121, 10119, 10123
9608, 8119, 10121, 10123, 10122
9609, 10125, 10126, 10124, 7585
9610, 10126, 10121, 8119, 10124
9611, 10114, 8121, 10121, 10126
9612, 8120, 10114, 10126, 10125
9613, 10130, 10131, 10127, 7560
9614, 10131, 10128, 8123, 10127
9615, 10129, 8124, 10128, 10131
9616, 8122, 10129, 10131, 10130
9617, 9933, 10134, 10132, 7503
9618, 10134, 10129, 8122, 10132
9619, 10133, 8124, 10129, 10134
9620, 8075, 10133, 10134, 9933
9621, 9409, 10136, 9945, 7526
9622, 10136, 10133, 8075, 9945
9623, 10135, 8124, 10133, 10136
9624, 7936, 10135, 10136, 9409
9625, 10137, 10138, 9421, 7583
9626, 10138, 10135, 7936, 9421
9627, 10128, 8124, 10135, 10138
9628, 8123, 10128, 10138, 10137
9629, 10142, 10143, 10139, 7492
9630, 10143, 10140, 8126, 10139
9631, 10141, 8127, 10140, 10143
9632, 8125, 10141, 10143, 10142
9633, 9575, 10146, 10144, 7427
9634, 10146, 10141, 8125, 10144
9635, 10145, 8127, 10141, 10146
9636, 7978, 10145, 10146, 9575
9637, 9573, 10148, 9583, 7470
9638, 10148, 10145, 7978, 9583
9639, 10147, 8127, 10145, 10148
9640, 7976, 10147, 10148, 9573
9641, 10149, 10150, 9571, 7529
9642, 10150, 10147, 7976, 9571
9643, 10140, 8127, 10147, 10150
9644, 8126, 10140, 10150, 10149
9645, 10153, 10154, 9866, 7421
9646, 10154, 10151, 8054, 9866
9647, 10152, 8129, 10151, 10154
9648, 8128, 10152, 10154, 10153
9649, 9414, 10157, 10155, 7483
9650, 10157, 10152, 8128, 10155
9651, 10156, 8129, 10152, 10157
9652, 7934, 10156, 10157, 9414
9653, 9944, 10159, 9412, 7526
9654, 10159, 10156, 7934, 9412
9655, 10158, 8129, 10156, 10159
9656, 8074, 10158, 10159, 9944
9657, 9868, 10160, 9942, 7477
9658, 10160, 10158, 8074, 9942
9659, 10151, 8129, 10158, 10160
9660, 8054, 10151, 10160, 9868
9661, 9367, 10163, 9200, 7414
9662, 10163, 10161, 7877, 9200
9663, 10162, 8131, 10161, 10163
9664, 7923, 10162, 10163, 9367
9665, 10165, 10166, 9377, 7521
9666, 10166, 10162, 7923, 9377
9667, 10164, 8131, 10162, 10166
9668, 8130, 10164, 10166, 10165
9669, 10015, 10169, 10167, 7498
9670, 10169, 10164, 8130, 10167
9671, 10168, 8131, 10164, 10169
9672, 8093, 10168, 10169, 10015
9673, 9202, 10170, 10013, 7464
9674, 10170, 10168, 8093, 10013
9675, 10161, 8131, 10168, 10170
9676, 7877, 10161, 10170, 9202
9677, 10173, 10174, 9913, 7558
9678, 10174, 10171, 8068, 9913
9679, 10172, 8133, 10171, 10174
9680, 8132, 10172, 10174, 10173
9681, 9842, 10177, 10175, 7589
9682, 10177, 10172, 8132, 10175
9683, 10176, 8133, 10172, 10177
9684, 8047, 10176, 10177, 9842
9685, 9963, 10179, 9840, 7530
9686, 10179, 10176, 8047, 9840
9687, 10178, 8133, 10176, 10179
9688, 8080, 10178, 10179, 9963
9689, 9915, 10180, 9961, 7501
9690, 10180, 10178, 8080, 9961
9691, 10171, 8133, 10178, 10180
9692, 8068, 10171, 10180, 9915
9693, 10184, 10185, 10181, 7632
9694, 10185, 10182, 8137, 10181
9695, 10183, 8138, 10182, 10185
9696, 8134, 10183, 10185, 10184
9697, 10188, 10189, 10186, 7651
9698, 10189, 10183, 8134, 10186
9699, 10187, 8138, 10183, 10189
9700, 8135, 10187, 10189, 10188
9701, 10192, 10193, 10190, 7629
9702, 10193, 10187, 8135, 10190
9703, 10191, 8138, 10187, 10193
9704, 8136, 10191, 10193, 10192
9705, 10195, 10196, 10194, 7592
9706, 10196, 10191, 8136, 10194
9707, 10182, 8138, 10191, 10196
9708, 8137, 10182, 10196, 10195
9709, 9252, 10199, 9756, 7467
9710, 10199, 10197, 8026, 9756
9711, 10198, 8140, 10197, 10199
9712, 7890, 10198, 10199, 9252
9713, 10144, 10201, 9250, 7427
9714, 10201, 10198, 7890, 9250
9715, 10200, 8140, 10198, 10201
9716, 8125, 10200, 10201, 10144
9717, 10203, 10204, 10142, 7492
9718, 10204, 10200, 8125, 10142
9719, 10202, 8140, 10200, 10204
9720, 8139, 10202, 10204, 10203
9721, 9758, 10206, 10205, 7531
9722, 10206, 10202, 8139, 10205
9723, 10197, 8140, 10202, 10206
9724, 8026, 10197, 10206, 9758
9725, 10210, 10211, 10207, 7557
9726, 10211, 10208, 8144, 10207
9727, 10209, 8145, 10208, 10211
9728, 8141, 10209, 10211, 10210
9729, 10214, 10215, 10212, 7502
9730, 10215, 10209, 8141, 10212
9731, 10213, 8145, 10209, 10215
9732, 8142, 10213, 10215, 10214
9733, 10218, 10219, 10216, 7454
9734, 10219, 10213, 8142, 10216
9735, 10217, 8145, 10213, 10219
9736, 8143, 10217, 10219, 10218
9737, 10221, 10222, 10220, 7527
9738, 10222, 10217, 8143, 10220
9739, 10208, 8145, 10217, 10222
9740, 8144, 10208, 10222, 10221
9741, 10226, 10227, 10223, 7458
9742, 10227, 10224, 8148, 10223
9743, 10225, 8149, 10224, 10227
9744, 8146, 10225, 10227, 10226
9745, 733, 10230, 10228, 734
9746, 10230, 10225, 8146, 10228
9747, 10229, 8149, 10225, 10230
9748, 732, 10229, 10230, 733
9749, 10232, 10233, 731, 730
9750, 10233, 10229, 732, 731
9751, 10231, 8149, 10229, 10233
9752, 8147, 10231, 10233, 10232
9753, 10235, 10236, 10234, 7438
9754, 10236, 10231, 8147, 10234
9755, 10224, 8149, 10231, 10236
9756, 8148, 10224, 10236, 10235
9757, 8709, 10239, 9822, 7579
9758, 10239, 10237, 8042, 9822
9759, 10238, 8151, 10237, 10239
9760, 7726, 10238, 10239, 8709
9761, 10241, 10242, 8719, 7624
9762, 10242, 10238, 7726, 8719
9763, 10240, 8151, 10238, 10242
9764, 8150, 10240, 10242, 10241
9765, 10072, 10245, 10243, 7607
9766, 10245, 10240, 8150, 10243
9767, 10244, 8151, 10240, 10245
9768, 8107, 10244, 10245, 10072
9769, 9824, 10246, 10070, 7555
9770, 10246, 10244, 8107, 10070
9771, 10237, 8151, 10244, 10246
9772, 8042, 10237, 10246, 9824
9773, 9002, 10250, 10247, 7418
9774, 10250, 10248, 8153, 10247
9775, 10249, 8154, 10248, 10250
9776, 7819, 10249, 10250, 9002
9777, 740, 10252, 9000, 61
9778, 10252, 10249, 7819, 9000
9779, 10251, 8154, 10249, 10252
9780, 739, 10251, 10252, 740
9781, 10254, 10255, 738, 62
9782, 10255, 10251, 739, 738
9783, 10253, 8154, 10251, 10255
9784, 8152, 10253, 10255, 10254
9785, 10257, 10258, 10256, 7446
9786, 10258, 10253, 8152, 10256
9787, 10248, 8154, 10253, 10258
9788, 8153, 10248, 10258, 10257
9789, 603, 10262, 10259, 41
9790, 10262, 10260, 8156, 10259
9791, 10261, 8157, 10260, 10262
9792, 602, 10261, 10262, 603
9793, 8985, 10264, 601, 42
9794, 10264, 10261, 602, 601
9795, 10263, 8157, 10261, 10264
9796, 7817, 10263, 10264, 8985
9797, 10266, 10267, 8993, 7416
9798, 10267, 10263, 7817, 8993
9799, 10265, 8157, 10263, 10267
9800, 8155, 10265, 10267, 10266
9801, 10269, 10270, 10268, 7447
9802, 10270, 10265, 8155, 10268
9803, 10260, 8157, 10265, 10270
9804, 8156, 10260, 10270, 10269
9805, 10274, 10275, 10271, 7560
9806, 10275, 10272, 8161, 10271
9807, 10273, 8162, 10272, 10275
9808, 8158, 10273, 10275, 10274
9809, 10278, 10279, 10276, 7601
9810, 10279, 10273, 8158, 10276
9811, 10277, 8162, 10273, 10279
9812, 8159, 10277, 10279, 10278
9813, 10282, 10283, 10280, 7570
9814, 10283, 10277, 8159, 10280
9815, 10281, 8162, 10277, 10283
9816, 8160, 10281, 10283, 10282
9817, 10285, 10286, 10284, 7541
9818, 10286, 10281, 8160, 10284
9819, 10272, 8162, 10281, 10286
9820, 8161, 10272, 10286, 10285
9821, 10290, 10291, 10287, 7528
9822, 10291, 10288, 8165, 10287
9823, 10289, 8166, 10288, 10291
9824, 8163, 10289, 10291, 10290
9825, 10294, 10295, 10292, 7493
9826, 10295, 10289, 8163, 10292
9827, 10293, 8166, 10289, 10295
9828, 8164, 10293, 10295, 10294
9829, 9947, 10298, 10296, 7424
9830, 10298, 10293, 8164, 10296
9831, 10297, 8166, 10293, 10298
9832, 8078, 10297, 10298, 9947
9833, 10299, 10300, 9957, 7473
9834, 10300, 10297, 8078, 9957
9835, 10288, 8166, 10297, 10300
9836, 8165, 10288, 10300, 10299
9837, 150, 10304, 10301, 149
9838, 10304, 10302, 8168, 10301
9839, 10303, 8169, 10302, 10304
9840, 151, 10303, 10304, 150
9841, 9024, 10306, 152, 153
9842, 10306, 10303, 151, 152
9843, 10305, 8169, 10303, 10306
9844, 7826, 10305, 10306, 9024
9845, 10308, 10309, 9022, 7437
9846, 10309, 10305, 7826, 9022
9847, 10307, 8169, 10305, 10309
9848, 8167, 10307, 10309, 10308
9849, 10311, 10312, 10310, 7460
9850, 10312, 10307, 8167, 10310
9851, 10302, 8169, 10307, 10312
9852, 8168, 10302, 10312, 10311
9853, 10315, 10316, 10311, 7460
9854, 10316, 10313, 8168, 10311
9855, 10314, 8171, 10313, 10316
9856, 8170, 10314, 10316, 10315
9857, 9585, 10319, 10317, 7430
9858, 10319, 10314, 8170, 10317
9859, 10318, 8171, 10314, 10319
9860, 7981, 10318, 10319, 9585
9861, 146, 10321, 9595, 145
9862, 10321, 10318, 7981, 9595
9863, 10320, 8171, 10318, 10321
9864, 147, 10320, 10321, 146
9865, 10301, 10322, 148, 149
9866, 10322, 10320, 147, 148
9867, 10313, 8171, 10320, 10322
9868, 8168, 10313, 10322, 10301
9869, 10325, 10326, 9262, 7622
9870, 10326, 10323, 7894, 9262
9871, 10324, 8173, 10323, 10326
9872, 8172, 10324, 10326, 10325
9873, 9663, 10329, 10327, 7631
9874, 10329, 10324, 8172, 10327
9875, 10328, 8173, 10324, 10329
9876, 8001, 10328, 10329, 9663
9877, 8778, 10331, 9661, 7615
9878, 10331, 10328, 8001, 9661
9879, 10330, 8173, 10328, 10331
9880, 7745, 10330, 10331, 8778
9881, 9264, 10332, 8776, 7604
9882, 10332, 10330, 7745, 8776
9883, 10323, 8173, 10330, 10332
9884, 7894, 10323, 10332, 9264
9885, 10335, 10336, 8616, 7433
9886, 10336, 10333, 7692, 8616
9887, 10334, 8176, 10333, 10336
9888, 8174, 10334, 10336, 10335
9889, 752, 10339, 10337, 65
9890, 10339, 10334, 8174, 10337
9891, 10338, 8176, 10334, 10339
9892, 751, 10338, 10339, 752
9893, 10341, 10342, 750, 66
9894, 10342, 10338, 751, 750
9895, 10340, 8176, 10338, 10342
9896, 8175, 10340, 10342, 10341
9897, 8618, 10344, 10343, 7439
9898, 10344, 10340, 8175, 10343
9899, 10333, 8176, 10340, 10344
9900, 7692, 10333, 10344, 8618
9901, 8922, 10348, 10345, 7559
9902, 10348, 10346, 8177, 10345
9903, 10347, 8178, 10346, 10348
9904, 7793, 10347, 10348, 8922
9905, 9983, 10350, 8920, 7482
9906, 10350, 10347, 7793, 8920
9907, 10349, 8178, 10347, 10350
9908, 8089, 10349, 10350, 9983
9909, 10021, 10352, 9997, 7525
9910, 10352, 10349, 8089, 9997
9911, 10351, 8178, 10349, 10352
9912, 8099, 10351, 10352, 10021
9913, 10353, 10354, 10035, 7584
9914, 10354, 10351, 8099, 10035
9915, 10346, 8178, 10351, 10354
9916, 8177, 10346, 10354, 10353
9917, 8762, 10357, 9813, 7611
9918, 10357, 10355, 8039, 9813
9919, 10356, 8181, 10355, 10357
9920, 7740, 10356, 10357, 8762
9921, 10359, 10360, 8760, 7598
9922, 10360, 10356, 7740, 8760
9923, 10358, 8181, 10356, 10360
9924, 8179, 10358, 10360, 10359
9925, 10363, 10364, 10361, 7585
9926, 10364, 10358, 8179, 10361
9927, 10362, 8181, 10358, 10364
9928, 8180, 10362, 10364, 10363
9929, 9799, 10366, 10365, 7553
9930, 10366, 10362, 8180, 10365
9931, 10355, 8181, 10362, 10366
9932, 8039, 10355, 10366, 9799
9933, 10369, 10370, 10203, 7492
9934, 10370, 10367, 8139, 10203
9935, 10368, 8183, 10367, 10370
9936, 8182, 10368, 10370, 10369
9937, 10365, 10373, 10371, 7553
9938, 10373, 10368, 8182, 10371
9939, 10372, 8183, 10368, 10373
9940, 8180, 10372, 10373, 10365
9941, 10124, 10375, 10363, 7585
9942, 10375, 10372, 8180, 10363
9943, 10374, 8183, 10372, 10375
9944, 8119, 10374, 10375, 10124
9945, 10205, 10376, 10122, 7531
9946, 10376, 10374, 8119, 10122
9947, 10367, 8183, 10374, 10376
9948, 8139, 10367, 10376, 10205
9949, 10380, 10381, 10377, 7618
9950, 10381, 10378, 8187, 10377
9951, 10379, 8188, 10378, 10381
9952, 8184, 10379, 10381, 10380
9953, 10384, 10385, 10382, 7633
9954, 10385, 10379, 8184, 10382
9955, 10383, 8188, 10379, 10385
9956, 8185, 10383, 10385, 10384
9957, 10388, 10389, 10386, 7626
9958, 10389, 10383, 8185, 10386
9959, 10387, 8188, 10383, 10389
9960, 8186, 10387, 10389, 10388
9961, 10391, 10392, 10390, 7599
9962, 10392, 10387, 8186, 10390
9963, 10378, 8188, 10387, 10392
9964, 8187, 10378, 10392, 10391
9965, 8958, 10396, 10393, 7565
9966, 10396, 10394, 8191, 10393
9967, 10395, 8192, 10394, 10396
9968, 7805, 10395, 10396, 8958
9969, 10398, 10399, 8956, 7495
9970, 10399, 10395, 7805, 8956
9971, 10397, 8192, 10395, 10399
9972, 8189, 10397, 10399, 10398
9973, 10402, 10403, 10400, 7450
9974, 10403, 10397, 8189, 10400
9975, 10401, 8192, 10397, 10403
9976, 8190, 10401, 10403, 10402
9977, 10405, 10406, 10404, 7514
9978, 10406, 10401, 8190, 10404
9979, 10394, 8192, 10401, 10406
9980, 8191, 10394, 10406, 10405
9981, 10410, 10411, 10407, 7496
9982, 10411, 10408, 8196, 10407
9983, 10409, 8197, 10408, 10411
9984, 8193, 10409, 10411, 10410
9985, 10414, 10415, 10412, 7561
9986, 10415, 10409, 8193, 10412
9987, 10413, 8197, 10409, 10415
9988, 8194, 10413, 10415, 10414
9989, 10418, 10419, 10416, 7513
9990, 10419, 10413, 8194, 10416
9991, 10417, 8197, 10413, 10419
9992, 8195, 10417, 10419, 10418
9993, 10421, 10422, 10420, 7448
9994, 10422, 10417, 8195, 10420
9995, 10408, 8197, 10417, 10422
9996, 8196, 10408, 10422, 10421
9997, 9533, 10426, 10423, 7569
9998, 10426, 10424, 8198, 10423
9999, 10425, 8199, 10424, 10426
10000, 7968, 10425, 10426, 9533
10001, 10113, 10428, 9545, 7552
10002, 10428, 10425, 7968, 9545
10003, 10427, 8199, 10425, 10428
10004, 8120, 10427, 10428, 10113
10005, 10361, 10430, 10125, 7585
10006, 10430, 10427, 8120, 10125
10007, 10429, 8199, 10427, 10430
10008, 8179, 10429, 10430, 10361
10009, 10431, 10432, 10359, 7598
10010, 10432, 10429, 8179, 10359
10011, 10424, 8199, 10429, 10432
10012, 8198, 10424, 10432, 10431
10013, 10435, 10436, 9606, 7539
10014, 10436, 10433, 7984, 9606
10015, 10434, 8201, 10433, 10436
10016, 8200, 10434, 10436, 10435
10017, 8858, 10439, 10437, 7547
10018, 10439, 10434, 8200, 10437
10019, 10438, 8201, 10434, 10439
10020, 7772, 10438, 10439, 8858
10021, 10412, 10441, 8856, 7561
10022, 10441, 10438, 7772, 8856
10023, 10440, 8201, 10438, 10441
10024, 8193, 10440, 10441, 10412
10025, 9608, 10442, 10410, 7496
10026, 10442, 10440, 8193, 10410
10027, 10433, 8201, 10440, 10442
10028, 7984, 10433, 10442, 9608
10029, 9639, 10445, 9900, 7606
10030, 10445, 10443, 8064, 9900
10031, 10444, 8203, 10443, 10445
10032, 7998, 10444, 10445, 9639
10033, 10447, 10448, 9653, 7590
10034, 10448, 10444, 7998, 9653
10035, 10446, 8203, 10444, 10448
10036, 8202, 10446, 10448, 10447
10037, 9976, 10451, 10449, 7586
10038, 10451, 10446, 8202, 10449
10039, 10450, 8203, 10446, 10451
10040, 8082, 10450, 10451, 9976
10041, 9902, 10452, 9974, 7540
10042, 10452, 10450, 8082, 9974
10043, 10443, 8203, 10450, 10452
10044, 8064, 10443, 10452, 9902
10045, 9733, 10456, 10453, 7597
10046, 10456, 10454, 8205, 10453
10047, 10455, 8206, 10454, 10456
10048, 8023, 10455, 10456, 9733
10049, 10458, 10459, 9745, 7551
10050, 10459, 10455, 8023, 9745
10051, 10457, 8206, 10455, 10459
10052, 8204, 10457, 10459, 10458
10053, 10064, 10462, 10460, 7512
10054, 10462, 10457, 8204, 10460
10055, 10461, 8206, 10457, 10462
10056, 8104, 10461, 10462, 10064
10057, 10463, 10464, 10062, 7568
10058, 10464, 10461, 8104, 10062
10059, 10454, 8206, 10461, 10464
10060, 8205, 10454, 10464, 10463
10061, 10228, 10467, 735, 734
10062, 10467, 10465, 736, 735
10063, 10466, 8209, 10465, 10467
10064, 8146, 10466, 10467, 10228
10065, 10469, 10470, 10226, 7458
10066, 10470, 10466, 8146, 10226
10067, 10468, 8209, 10466, 10470
10068, 8207, 10468, 10470, 10469
10069, 10473, 10474, 10471, 7425
10070, 10474, 10468, 8207, 10471
10071, 10472, 8209, 10468, 10474
10072, 8208, 10472, 10474, 10473
10073, 737, 10476, 10475, 60
10074, 10476, 10472, 8208, 10475
10075, 10465, 8209, 10472, 10476
10076, 736, 10465, 10476, 737
10077, 677, 10479, 10095, 678
10078, 10479, 10477, 8112, 10095
10079, 10478, 8212, 10477, 10479
10080, 676, 10478, 10479, 677
10081, 10481, 10482, 675, 674
10082, 10482, 10478, 676, 675
10083, 10480, 8212, 10478, 10482
10084, 8210, 10480, 10482, 10481
10085, 10485, 10486, 10483, 7465
10086, 10486, 10480, 8210, 10483
10087, 10484, 8212, 10480, 10486
10088, 8211, 10484, 10486, 10485
10089, 10097, 10488, 10487, 7428
10090, 10488, 10484, 8211, 10487
10091, 10477, 8212, 10484, 10488
10092, 8112, 10477, 10488, 10097
10093, 8961, 10492, 10489, 7546
10094, 10492, 10490, 8214, 10489
10095, 10491, 8215, 10490, 10492
10096, 7810, 10491, 10492, 8961
10097, 8745, 10494, 8971, 7588
10098, 10494, 10491, 7810, 8971
10099, 10493, 8215, 10491, 10494
10100, 7738, 10493, 10494, 8745
10101, 10496, 10497, 8755, 7605
10102, 10497, 10493, 7738, 8755
10103, 10495, 8215, 10493, 10497
10104, 8213, 10495, 10497, 10496
10105, 10499, 10500, 10498, 7575
10106, 10500, 10495, 8213, 10498
10107, 10490, 8215, 10495, 10500
10108, 8214, 10490, 10500, 10499
10109, 10503, 10504, 8832, 7655
10110, 10504, 10501, 7764, 8832
10111, 10502, 8219, 10501, 10504
10112, 8216, 10502, 10504, 10503
10113, 10507, 10508, 10505, 7670
10114, 10508, 10502, 8216, 10505
10115, 10506, 8219, 10502, 10508
10116, 8217, 10506, 10508, 10507
10117, 10511, 10512, 10509, 7650
10118, 10512, 10506, 8217, 10509
10119, 10510, 8219, 10506, 10512
10120, 8218, 10510, 10512, 10511
10121, 8834, 10514, 10513, 7643
10122, 10514, 10510, 8218, 10513
10123, 10501, 8219, 10510, 10514
10124, 7764, 10501, 10514, 8834
10125, 10518, 10519, 10515, 7576
10126, 10519, 10516, 8222, 10515
10127, 10517, 8223, 10516, 10519
10128, 8220, 10517, 10519, 10518
10129, 10345, 10522, 10520, 7559
10130, 10522, 10517, 8220, 10520
10131, 10521, 8223, 10517, 10522
10132, 8177, 10521, 10522, 10345
10133, 10524, 10525, 10353, 7584
10134, 10525, 10521, 8177, 10353
10135, 10523, 8223, 10521, 10525
10136, 8221, 10523, 10525, 10524
10137, 10527, 10528, 10526, 7602
10138, 10528, 10523, 8221, 10526
10139, 10516, 8223, 10523, 10528
10140, 8222, 10516, 10528, 10527
10141, 8625, 10531, 9443, 7443
10142, 10531, 10529, 7943, 9443
10143, 10530, 8225, 10529, 10531
10144, 7698, 10530, 10531, 8625
10145, 10216, 10533, 8635, 7454
10146, 10533, 10530, 7698, 8635
10147, 10532, 8225, 10530, 10533
10148, 8142, 10532, 10533, 10216
10149, 10535, 10536, 10214, 7502
10150, 10536, 10532, 8142, 10214
10151, 10534, 8225, 10532, 10536
10152, 8224, 10534, 10536, 10535
10153, 9445, 10538, 10537, 7475
10154, 10538, 10534, 8224, 10537
10155, 10529, 8225, 10534, 10538
10156, 7943, 10529, 10538, 9445
10157, 10542, 10543, 10539, 7660
10158, 10543, 10540, 8228, 10539
10159, 10541, 8229, 10540, 10543
10160, 8226, 10541, 10543, 10542
10161, 10546, 10547, 10544, 7647
10162, 10547, 10541, 8226, 10544
10163, 10545, 8229, 10541, 10547
10164, 8227, 10545, 10547, 10546
10165, 8577, 10550, 10548, 7666
10166, 10550, 10545, 8227, 10548
10167, 10549, 8229, 10545, 10550
10168, 7682, 10549, 10550, 8577
10169, 10551, 10552, 8587, 7671
10170, 10552, 10549, 7682, 8587
10171, 10540, 8229, 10549, 10552
10172, 8228, 10540, 10552, 10551
10173, 9644, 10556, 10553, 7640
10174, 10556, 10554, 8230, 10553
10175, 10555, 8231, 10554, 10556
10176, 7995, 10555, 10556, 9644
10177, 9897, 10558, 9642, 7606
10178, 10558, 10555, 7995, 9642
10179, 10557, 8231, 10555, 10558
10180, 8066, 10557, 10558, 9897
10181, 10386, 10560, 9909, 7626
10182, 10560, 10557, 8066, 9909
10183, 10559, 8231, 10557, 10560
10184, 8185, 10559, 10560, 10386
10185, 10561, 10562, 10384, 7633
10186, 10562, 10559, 8185, 10384
10187, 10554, 8231, 10559, 10562
10188, 8230, 10554, 10562, 10561
10189, 10565, 10566, 10221, 7527
10190, 10566, 10563, 8144, 10221
10191, 10564, 8234, 10563, 10566
10192, 8232, 10564, 10566, 10565
10193, 9492, 10569, 10567, 7545
10194, 10569, 10564, 8232, 10567
10195, 10568, 8234, 10564, 10569
10196, 7954, 10568, 10569, 9492
10197, 10571, 10572, 9490, 7580
10198, 10572, 10568, 7954, 9490
10199, 10570, 8234, 10568, 10572
10200, 8233, 10570, 10572, 10571
10201, 10207, 10574, 10573, 7557
10202, 10574, 10570, 8233, 10573
10203, 10563, 8234, 10570, 10574
10204, 8144, 10563, 10574, 10207
10205, 10194, 10578, 10575, 7592
10206, 10578, 10576, 8235, 10575
10207, 10577, 8236, 10576, 10578
10208, 8136, 10577, 10578, 10194
10209, 8766, 10580, 10192, 7629
10210, 10580, 10577, 8136, 10192
10211, 10579, 8236, 10577, 10580
10212, 7741, 10579, 10580, 8766
10213, 9812, 10582, 8764, 7611
10214, 10582, 10579, 7741, 8764
10215, 10581, 8236, 10579, 10582
10216, 8038, 10581, 10582, 9812
10217, 10583, 10584, 9810, 7573
10218, 10584, 10581, 8038, 9810
10219, 10576, 8236, 10581, 10584
10220, 8235, 10576, 10584, 10583
10221, 10588, 10589, 10585, 7667
10222, 10589, 10586, 8239, 10585
10223, 10587, 8240, 10586, 10589
10224, 8237, 10587, 10589, 10588
10225, 8586, 10592, 10590, 7671
10226, 10592, 10587, 8237, 10590
10227, 10591, 8240, 10587, 10592
10228, 7681, 10591, 10592, 8586
10229, 10594, 10595, 8584, 7665
10230, 10595, 10591, 7681, 8584
10231, 10593, 8240, 10591, 10595
10232, 8238, 10593, 10595, 10594
10233, 10597, 10598, 10596, 7669
10234, 10598, 10593, 8238, 10596
10235, 10586, 8240, 10593, 10598
10236, 8239, 10586, 10598, 10597
10237, 10280, 10602, 10599, 7570
10238, 10602, 10600, 8243, 10599
10239, 10601, 8244, 10600, 10602
10240, 8159, 10601, 10602, 10280
10241, 10604, 10605, 10278, 7601
10242, 10605, 10601, 8159, 10278
10243, 10603, 8244, 10601, 10605
10244, 8241, 10603, 10605, 10604
10245, 10608, 10609, 10606, 7621
10246, 10609, 10603, 8241, 10606
10247, 10607, 8244, 10603, 10609
10248, 8242, 10607, 10609, 10608
10249, 10611, 10612, 10610, 7620
10250, 10612, 10607, 8242, 10610
10251, 10600, 8244, 10607, 10612
10252, 8243, 10600, 10612, 10611
10253, 10615, 10616, 10137, 7583
10254, 10616, 10613, 8123, 10137
10255, 10614, 8247, 10613, 10616
10256, 8245, 10614, 10616, 10615
10257, 10619, 10620, 10617, 7610
10258, 10620, 10614, 8245, 10617
10259, 10618, 8247, 10614, 10620
10260, 8246, 10618, 10620, 10619
10261, 10276, 10623, 10621, 7601
10262, 10623, 10618, 8246, 10621
10263, 10622, 8247, 10618, 10623
10264, 8158, 10622, 10623, 10276
10265, 10127, 10624, 10274, 7560
10266, 10624, 10622, 8158, 10274
10267, 10613, 8247, 10622, 10624
10268, 8123, 10613, 10624, 10127
10269, 10628, 10629, 10625, 7452
10270, 10629, 10626, 8250, 10625
10271, 10627, 8251, 10626, 10629
10272, 8248, 10627, 10629, 10628
10273, 9980, 10632, 10630, 7500
10274, 10632, 10627, 8248, 10630
10275, 10631, 8251, 10627, 10632
10276, 8083, 10631, 10632, 9980
10277, 10634, 10635, 9978, 7586
10278, 10635, 10631, 8083, 9978
10279, 10633, 8251, 10631, 10635
10280, 8249, 10633, 10635, 10634
10281, 10637, 10638, 10636, 7608
10282, 10638, 10633, 8249, 10636
10283, 10626, 8251, 10633, 10638
10284, 8250, 10626, 10638, 10637
10285, 10118, 10642, 10639, 7480
10286, 10642, 10640, 8252, 10639
10287, 10641, 8253, 10640, 10642
10288, 8118, 10641, 10642, 10118
10289, 9544, 10644, 10116, 7552
10290, 10644, 10641, 8118, 10116
10291, 10643, 8253, 10641, 10644
10292, 7967, 10643, 10644, 9544
10293, 10030, 10646, 9542, 7544
10294, 10646, 10643, 7967, 9542
10295, 10645, 8253, 10643, 10646
10296, 8097, 10645, 10646, 10030
10297, 10647, 10648, 10028, 7505
10298, 10648, 10645, 8097, 10028
10299, 10640, 8253, 10645, 10648
10300, 8252, 10640, 10648, 10647
10301, 10651, 10652, 8836, 7643
10302, 10652, 10649, 7765, 8836
10303, 10650, 8256, 10649, 10652
10304, 8254, 10650, 10652, 10651
10305, 9648, 10655, 10653, 7612
10306, 10655, 10650, 8254, 10653
10307, 10654, 8256, 10650, 10655
10308, 7996, 10654, 10655, 9648
10309, 10657, 10658, 9646, 7640
10310, 10658, 10654, 7996, 9646
10311, 10656, 8256, 10654, 10658
10312, 8255, 10656, 10658, 10657
10313, 8838, 10660, 10659, 7659
10314, 10660, 10656, 8255, 10659
10315, 10649, 8256, 10656, 10660
10316, 7765, 10649, 10660, 8838
10317, 10664, 10665, 10661, 7638
10318, 10665, 10662, 8258, 10661
10319, 10663, 8259, 10662, 10665
10320, 8257, 10663, 10665, 10664
10321, 10653, 10668, 10666, 7612
10322, 10668, 10663, 8257, 10666
10323, 10667, 8259, 10663, 10668
10324, 8254, 10667, 10668, 10653
10325, 10513, 10670, 10651, 7643
10326, 10670, 10667, 8254, 10651
10327, 10669, 8259, 10667, 10670
10328, 8218, 10669, 10670, 10513
10329, 10671, 10672, 10511, 7650
10330, 10672, 10669, 8218, 10511
10331, 10662, 8259, 10669, 10672
10332, 8258, 10662, 10672, 10671
10333, 10676, 10677, 10673, 7533
10334, 10677, 10674, 8262, 10673
10335, 10675, 8263, 10674, 10677
10336, 8260, 10675, 10677, 10676
10337, 8750, 10680, 10678, 7543
10338, 10680, 10675, 8260, 10678
10339, 10679, 8263, 10675, 10680
10340, 7736, 10679, 10680, 8750
10341, 10682, 10683, 8748, 7588
10342, 10683, 10679, 7736, 8748
10343, 10681, 8263, 10679, 10683
10344, 8261, 10681, 10683, 10682
10345, 10685, 10686, 10684, 7514
10346, 10686, 10681, 8261, 10684
10347, 10674, 8263, 10681, 10686
10348, 8262, 10674, 10686, 10685
10349, 10689, 10690, 10565, 7527
10350, 10690, 10687, 8232, 10565
10351, 10688, 8267, 10687, 10690
10352, 8264, 10688, 10690, 10689
10353, 10693, 10694, 10691, 7497
10354, 10694, 10688, 8264, 10691
10355, 10692, 8267, 10688, 10694
10356, 8265, 10692, 10694, 10693
10357, 10697, 10698, 10695, 7511
10358, 10698, 10692, 8265, 10695
10359, 10696, 8267, 10692, 10698
10360, 8266, 10696, 10698, 10697
10361, 10567, 10700, 10699, 7545
10362, 10700, 10696, 8266, 10699
10363, 10687, 8267, 10696, 10700
10364, 8232, 10687, 10700, 10567
10365, 10704, 10705, 10701, 7491
10366, 10705, 10702, 8271, 10701
10367, 10703, 8272, 10702, 10705
10368, 8268, 10703, 10705, 10704
10369, 10708, 10709, 10706, 7429
10370, 10709, 10703, 8268, 10706
10371, 10707, 8272, 10703, 10709
10372, 8269, 10707, 10709, 10708
10373, 10712, 10713, 10710, 7478
10374, 10713, 10707, 8269, 10710
10375, 10711, 8272, 10707, 10713
10376, 8270, 10711, 10713, 10712
10377, 10715, 10716, 10714, 7504
10378, 10716, 10711, 8270, 10714
10379, 10702, 8272, 10711, 10716
10380, 8271, 10702, 10716, 10715
10381, 10720, 10721, 10717, 7459
10382, 10721, 10718, 8274, 10717
10383, 10719, 8275, 10718, 10721
10384, 8273, 10719, 10721, 10720
10385, 749, 10724, 10722, 64
10386, 10724, 10719, 8273, 10722
10387, 10723, 8275, 10719, 10724
10388, 748, 10723, 10724, 749
10389, 10337, 10726, 747, 65
10390, 10726, 10723, 748, 747
10391, 10725, 8275, 10723, 10726
10392, 8174, 10725, 10726, 10337
10393, 10727, 10728, 10335, 7433
10394, 10728, 10725, 8174, 10335
10395, 10718, 8275, 10725, 10728
10396, 8274, 10718, 10728, 10727
10397, 9698, 10732, 10729, 7499
10398, 10732, 10730, 8277, 10729
10399, 10731, 8278, 10730, 10732
10400, 8010, 10731, 10732, 9698
10401, 10734, 10735, 9696, 7449
10402, 10735, 10731, 8010, 9696
10403, 10733, 8278, 10731, 10735
10404, 8276, 10733, 10735, 10734
10405, 9508, 10738, 10736, 7549
10406, 10738, 10733, 8276, 10736
10407, 10737, 8278, 10733, 10738
10408, 7958, 10737, 10738, 9508
10409, 10739, 10740, 9506, 7510
10410, 10740, 10737, 7958, 9506
10411, 10730, 8278, 10737, 10740
10412, 8277, 10730, 10740, 10739
10413, 10743, 10744, 8560, 7434
10414, 10744, 10741, 7673, 8560
10415, 10742, 8281, 10741, 10744
10416, 8279, 10742, 10744, 10743
10417, 9471, 10747, 10745, 7577
10418, 10747, 10742, 8279, 10745
10419, 10746, 8281, 10742, 10747
10420, 7951, 10746, 10747, 9471
10421, 10749, 10750, 9481, 7522
10422, 10750, 10746, 7951, 9481
10423, 10748, 8281, 10746, 10750
10424, 8280, 10748, 10750, 10749
10425, 8562, 10752, 10751, 7562
10426, 10752, 10748, 8280, 10751
10427, 10741, 8281, 10748, 10752
10428, 7673, 10741, 10752, 8562
10429, 133, 10756, 10753, 134
10430, 10756, 10754, 8283, 10753
10431, 10755, 8284, 10754, 10756
10432, 132, 10755, 10756, 133
10433, 588, 10758, 131, 35
10434, 10758, 10755, 132, 131
10435, 10757, 8284, 10755, 10758
10436, 587, 10757, 10758, 588
10437, 10760, 10761, 586, 37
10438, 10761, 10757, 587, 586
10439, 10759, 8284, 10757, 10761
10440, 8282, 10759, 10761, 10760
10441, 10763, 10764, 10762, 7432
10442, 10764, 10759, 8282, 10762
10443, 10754, 8284, 10759, 10764
10444, 8283, 10754, 10764, 10763
10445, 9453, 10768, 10765, 7469
10446, 10768, 10766, 8285, 10765
10447, 10767, 8286, 10766, 10768
10448, 7945, 10767, 10768, 9453
10449, 9684, 10770, 9451, 7426
10450, 10770, 10767, 7945, 9451
10451, 10769, 8286, 10767, 10770
10452, 8006, 10769, 10770, 9684
10453, 9969, 10772, 9682, 7490
10454, 10772, 10769, 8006, 9682
10455, 10771, 8286, 10769, 10772
10456, 8084, 10771, 10772, 9969
10457, 10773, 10774, 9981, 7500
10458, 10774, 10771, 8084, 9981
10459, 10766, 8286, 10771, 10774
10460, 8285, 10766, 10774, 10773
10461, 10167, 10778, 10775, 7498
10462, 10778, 10776, 8288, 10775
10463, 10777, 8289, 10776, 10778
10464, 8130, 10777, 10778, 10167
10465, 10780, 10781, 10165, 7521
10466, 10781, 10777, 8130, 10165
10467, 10779, 8289, 10777, 10781
10468, 8287, 10779, 10781, 10780
10469, 10053, 10784, 10782, 7542
10470, 10784, 10779, 8287, 10782
10471, 10783, 8289, 10779, 10784
10472, 8105, 10783, 10784, 10053
10473, 10785, 10786, 10065, 7512
10474, 10786, 10783, 8105, 10065
10475, 10776, 8289, 10783, 10786
10476, 8288, 10776, 10786, 10785
10477, 10790, 10791, 10787, 7456
10478, 10791, 10788, 8291, 10787
10479, 10789, 8292, 10788, 10791
10480, 8290, 10789, 10791, 10790
10481, 10751, 10794, 10792, 7562
10482, 10794, 10789, 8290, 10792
10483, 10793, 8292, 10789, 10794
10484, 8280, 10793, 10794, 10751
10485, 9395, 10796, 10749, 7522
10486, 10796, 10793, 8280, 10749
10487, 10795, 8292, 10793, 10796
10488, 7932, 10795, 10796, 9395
10489, 10797, 10798, 9407, 7484
10490, 10798, 10795, 7932, 9407
10491, 10788, 8292, 10795, 10798
10492, 8291, 10788, 10798, 10797
10493, 10714, 10802, 10799, 7504
10494, 10802, 10800, 8294, 10799
10495, 10801, 8295, 10800, 10802
10496, 8270, 10801, 10802, 10714
10497, 10804, 10805, 10712, 7478
10498, 10805, 10801, 8270, 10712
10499, 10803, 8295, 10801, 10805
10500, 8293, 10803, 10805, 10804
10501, 10317, 10808, 10806, 7430
10502, 10808, 10803, 8293, 10806
10503, 10807, 8295, 10803, 10808
10504, 8170, 10807, 10808, 10317
10505, 10809, 10810, 10315, 7460
10506, 10810, 10807, 8170, 10315
10507, 10800, 8295, 10807, 10810
10508, 8294, 10800, 10810, 10809
10509, 10814, 10815, 10811, 7523
10510, 10815, 10812, 8298, 10811
10511, 10813, 8299, 10812, 10815
10512, 8296, 10813, 10815, 10814
10513, 10701, 10818, 10816, 7491
10514, 10818, 10813, 8296, 10816
10515, 10817, 8299, 10813, 10818
10516, 8271, 10817, 10818, 10701
10517, 10820, 10821, 10715, 7504
10518, 10821, 10817, 8271, 10715
10519, 10819, 8299, 10817, 10821
10520, 8297, 10819, 10821, 10820
10521, 10823, 10824, 10822, 7534
10522, 10824, 10819, 8297, 10822
10523, 10812, 8299, 10819, 10824
10524, 8298, 10812, 10824, 10823
10525, 10132, 10828, 10825, 7503
10526, 10828, 10826, 8300, 10825
10527, 10827, 8301, 10826, 10828
10528, 8122, 10827, 10828, 10132
10529, 10271, 10830, 10130, 7560
10530, 10830, 10827, 8122, 10130
10531, 10829, 8301, 10827, 10830
10532, 8161, 10829, 10830, 10271
10533, 9384, 10832, 10285, 7541
10534, 10832, 10829, 8161, 10285
10535, 10831, 8301, 10829, 10832
10536, 7925, 10831, 10832, 9384
10537, 10833, 10834, 9382, 7481
10538, 10834, 10831, 7925, 9382
10539, 10826, 8301, 10831, 10834
10540, 8300, 10826, 10834, 10833
10541, 9636, 10837, 10299, 7473
10542, 10837, 10835, 8165, 10299
10543, 10836, 8302, 10835, 10837
10544, 7992, 10836, 10837, 9636
10545, 9988, 10839, 9634, 7444
10546, 10839, 10836, 7992, 9634
10547, 10838, 8302, 10836, 10839
10548, 8086, 10838, 10839, 9988
10549, 8918, 10841, 9986, 7482
10550, 10841, 10838, 8086, 9986
10551, 10840, 8302, 10838, 10841
10552, 7792, 10840, 10841, 8918
10553, 10287, 10842, 8916, 7528
10554, 10842, 10840, 7792, 8916
10555, 10835, 8302, 10840, 10842
10556, 8165, 10835, 10842, 10287
10557, 137, 10846, 10843, 138
10558, 10846, 10844, 8304, 10843
10559, 10845, 8305, 10844, 10846
10560, 136, 10845, 10846, 137
10561, 10753, 10848, 135, 134
10562, 10848, 10845, 136, 135
10563, 10847, 8305, 10845, 10848
10564, 8283, 10847, 10848, 10753
10565, 10850, 10851, 10763, 7432
10566, 10851, 10847, 8283, 10763
10567, 10849, 8305, 10847, 10851
10568, 8303, 10849, 10851, 10850
10569, 10853, 10854, 10852, 7439
10570, 10854, 10849, 8303, 10852
10571, 10844, 8305, 10849, 10854
10572, 8304, 10844, 10854, 10853
10573, 10343, 10857, 10853, 7439
10574, 10857, 10855, 8304, 10853
10575, 10856, 8306, 10855, 10857
10576, 8175, 10856, 10857, 10343
10577, 755, 10859, 10341, 66
10578, 10859, 10856, 8175, 10341
10579, 10858, 8306, 10856, 10859
10580, 754, 10858, 10859, 755
10581, 141, 10861, 753, 36
10582, 10861, 10858, 754, 753
10583, 10860, 8306, 10858, 10861
10584, 140, 10860, 10861, 141
10585, 10843, 10862, 139, 138
10586, 10862, 10860, 140, 139
10587, 10855, 8306, 10860, 10862
10588, 8304, 10855, 10862, 10843
10589, 10460, 10865, 10785, 7512
10590, 10865, 10863, 8288, 10785
10591, 10864, 8307, 10863, 10865
10592, 8204, 10864, 10865, 10460
10593, 9552, 10867, 10458, 7551
10594, 10867, 10864, 8204, 10458
10595, 10866, 8307, 10864, 10867
10596, 7970, 10866, 10867, 9552
10597, 10019, 10869, 9550, 7451
10598, 10869, 10866, 7970, 9550
10599, 10868, 8307, 10866, 10869
10600, 8094, 10868, 10869, 10019
10601, 10775, 10870, 10017, 7498
10602, 10870, 10868, 8094, 10017
10603, 10863, 8307, 10868, 10870
10604, 8288, 10863, 10870, 10775
10605, 10874, 10875, 10871, 7610
10606, 10875, 10872, 8310, 10871
10607, 10873, 8311, 10872, 10875
10608, 8308, 10873, 10875, 10874
10609, 10878, 10879, 10876, 7523
10610, 10879, 10873, 8308, 10876
10611, 10877, 8311, 10873, 10879
10612, 8309, 10877, 10879, 10878
10613, 9742, 10882, 10880, 7520
10614, 10882, 10877, 8309, 10880
10615, 10881, 8311, 10877, 10882
10616, 8022, 10881, 10882, 9742
10617, 10883, 10884, 9740, 7572
10618, 10884, 10881, 8022, 9740
10619, 10872, 8311, 10881, 10884
10620, 8310, 10872, 10884, 10883
10621, 10888, 10889, 10885, 7623
10622, 10889, 10886, 8314, 10885
10623, 10887, 8315, 10886, 10889
10624, 8312, 10887, 10889, 10888
10625, 9119, 10892, 10890, 7641
10626, 10892, 10887, 8312, 10890
10627, 10891, 8315, 10887, 10892
10628, 7858, 10891, 10892, 9119
10629, 10894, 10895, 9133, 7600
10630, 10895, 10891, 7858, 9133
10631, 10893, 8315, 10891, 10895
10632, 8313, 10893, 10895, 10894
10633, 10897, 10898, 10896, 7571
10634, 10898, 10893, 8313, 10896
10635, 10886, 8315, 10893, 10898
10636, 8314, 10886, 10898, 10897
10637, 8877, 10901, 10173, 7558
10638, 10901, 10899, 8132, 10173
10639, 10900, 8316, 10899, 10901
10640, 7782, 10900, 10901, 8877
10641, 10390, 10903, 8887, 7599
10642, 10903, 10900, 7782, 8887
10643, 10902, 8316, 10900, 10903
10644, 8186, 10902, 10903, 10390
10645, 9908, 10905, 10388, 7626
10646, 10905, 10902, 8186, 10388
10647, 10904, 8316, 10902, 10905
10648, 8065, 10904, 10905, 9908
10649, 10175, 10906, 9906, 7589
10650, 10906, 10904, 8065, 9906
10651, 10899, 8316, 10904, 10906
10652, 8132, 10899, 10906, 10175
10653, 9224, 10909, 9182, 7630
10654, 10909, 10907, 7872, 9182
10655, 10908, 8319, 10907, 10909
10656, 7883, 10908, 10909, 9224
10657, 10911, 10912, 9222, 7649
10658, 10912, 10908, 7883, 9222
10659, 10910, 8319, 10908, 10912
10660, 8317, 10910, 10912, 10911
10661, 10915, 10916, 10913, 7652
10662, 10916, 10910, 8317, 10913
10663, 10914, 8319, 10910, 10916
10664, 8318, 10914, 10916, 10915
10665, 9184, 10918, 10917, 7614
10666, 10918, 10914, 8318, 10917
10667, 10907, 8319, 10914, 10918
10668, 7872, 10907, 10918, 9184
10669, 9828, 10922, 10919, 7485
10670, 10922, 10920, 8320, 10919
10671, 10921, 8321, 10920, 10922
10672, 8043, 10921, 10922, 9828
10673, 10067, 10924, 9826, 7555
10674, 10924, 10921, 8043, 9826
10675, 10923, 8321, 10921, 10924
10676, 8109, 10923, 10924, 10067
10677, 10695, 10926, 10079, 7511
10678, 10926, 10923, 8109, 10079
10679, 10925, 8321, 10923, 10926
10680, 8265, 10925, 10926, 10695
10681, 10927, 10928, 10693, 7497
10682, 10928, 10925, 8265, 10693
10683, 10920, 8321, 10925, 10928
10684, 8320, 10920, 10928, 10927
10685, 9280, 10931, 10739, 7510
10686, 10931, 10929, 8277, 10739
10687, 10930, 8323, 10929, 10931
10688, 7898, 10930, 10931, 9280
10689, 10933, 10934, 9278, 7548
10690, 10934, 10930, 7898, 9278
10691, 10932, 8323, 10930, 10934
10692, 8322, 10932, 10934, 10933
10693, 9309, 10937, 10935, 7489
10694, 10937, 10932, 8322, 10935
10695, 10936, 8323, 10932, 10937
10696, 7910, 10936, 10937, 9309
10697, 10729, 10938, 9321, 7499
10698, 10938, 10936, 7910, 9321
10699, 10929, 8323, 10936, 10938
10700, 8277, 10929, 10938, 10729
10701, 10941, 10942, 10927, 7497
10702, 10942, 10939, 8320, 10927
10703, 10940, 8326, 10939, 10942
10704, 8324, 10940, 10942, 10941
10705, 10471, 10945, 10943, 7425
10706, 10945, 10940, 8324, 10943
10707, 10944, 8326, 10940, 10945
10708, 8207, 10944, 10945, 10471
10709, 10947, 10948, 10469, 7458
10710, 10948, 10944, 8207, 10469
10711, 10946, 8326, 10944, 10948
10712, 8325, 10946, 10948, 10947
10713, 10919, 10950, 10949, 7485
10714, 10950, 10946, 8325, 10949
10715, 10939, 8326, 10946, 10950
10716, 8320, 10939, 10950, 10919
10717, 10437, 10954, 10951, 7547
10718, 10954, 10952, 8327, 10951
10719, 10953, 8328, 10952, 10954
10720, 8200, 10953, 10954, 10437
10721, 8742, 10956, 10435, 7539
10722, 10956, 10953, 8200, 10435
10723, 10955, 8328, 10953, 10956
10724, 7733, 10955, 10956, 8742
10725, 9882, 10958, 8740, 7494
10726, 10958, 10955, 7733, 8740
10727, 10957, 8328, 10955, 10958
10728, 8058, 10957, 10958, 9882
10729, 10959, 10960, 9880, 7535
10730, 10960, 10957, 8058, 9880
10731, 10952, 8328, 10957, 10960
10732, 8327, 10952, 10960, 10959
10733, 8786, 10964, 10961, 7556
10734, 10964, 10962, 8330, 10961
10735, 10963, 8331, 10962, 10964
10736, 7748, 10963, 10964, 8786
10737, 10678, 10966, 8784, 7543
10738, 10966, 10963, 7748, 8784
10739, 10965, 8331, 10963, 10966
10740, 8260, 10965, 10966, 10678
10741, 10968, 10969, 10676, 7533
10742, 10969, 10965, 8260, 10676
10743, 10967, 8331, 10965, 10969
10744, 8329, 10967, 10969, 10968
10745, 10971, 10972, 10970, 7453
10746, 10972, 10967, 8329, 10970
10747, 10962, 8331, 10967, 10972
10748, 8330, 10962, 10972, 10971
10749, 10976, 10977, 10973, 7536
10750, 10977, 10974, 8334, 10973
10751, 10975, 8335, 10974, 10977
10752, 8332, 10975, 10977, 10976
10753, 10980, 10981, 10978, 7508
10754, 10981, 10975, 8332, 10978
10755, 10979, 8335, 10975, 10981
10756, 8333, 10979, 10981, 10980
10757, 10420, 10984, 10982, 7448
10758, 10984, 10979, 8333, 10982
10759, 10983, 8335, 10979, 10984
10760, 8195, 10983, 10984, 10420
10761, 10985, 10986, 10418, 7513
10762, 10986, 10983, 8195, 10418
10763, 10974, 8335, 10983, 10986
10764, 8334, 10974, 10986, 10985
10765, 10989, 10990, 10933, 7548
10766, 10990, 10987, 8322, 10933
10767, 10988, 8337, 10987, 10990
10768, 8336, 10988, 10990, 10989
10769, 10782, 10993, 10991, 7542
10770, 10993, 10988, 8336, 10991
10771, 10992, 8337, 10988, 10993
10772, 8287, 10992, 10993, 10782
10773, 9376, 10995, 10780, 7521
10774, 10995, 10992, 8287, 10780
10775, 10994, 8337, 10992, 10995
10776, 7922, 10994, 10995, 9376
10777, 10935, 10996, 9374, 7489
10778, 10996, 10994, 7922, 9374
10779, 10987, 8337, 10994, 10996
10780, 8322, 10987, 10996, 10935
10781, 8642, 11000, 10997, 7509
10782, 11000, 10998, 8338, 10997
10783, 10999, 8339, 10998, 11000
10784, 7700, 10999, 11000, 8642
10785, 9294, 11002, 8640, 7461
10786, 11002, 10999, 7700, 8640
10787, 11001, 8339, 10999, 11002
10788, 7902, 11001, 11002, 9294
10789, 10487, 11004, 9292, 7428
10790, 11004, 11001, 7902, 9292
10791, 11003, 8339, 11001, 11004
10792, 8211, 11003, 11004, 10487
10793, 11005, 11006, 10485, 7465
10794, 11006, 11003, 8211, 10485
10795, 10998, 8339, 11003, 11006
10796, 8338, 10998, 11006, 11005
10797, 11009, 11010, 9950, 7424
10798, 11010, 11007, 8077, 9950
10799, 11008, 8341, 11007, 11010
10800, 8340, 11008, 11010, 11009
10801, 10483, 11013, 11011, 7465
10802, 11013, 11008, 8340, 11011
10803, 11012, 8341, 11008, 11013
10804, 8210, 11012, 11013, 10483
10805, 673, 11015, 10481, 674
10806, 11015, 11012, 8210, 10481
10807, 11014, 8341, 11012, 11015
10808, 672, 11014, 11015, 673
10809, 9952, 11016, 671, 52
10810, 11016, 11014, 672, 671
10811, 11007, 8341, 11014, 11016
10812, 8077, 11007, 11016, 9952
10813, 8970, 11019, 10682, 7588
10814, 11019, 11017, 8261, 10682
10815, 11018, 8343, 11017, 11019
10816, 7809, 11018, 11019, 8970
10817, 11021, 11022, 8968, 7587
10818, 11022, 11018, 7809, 8968
10819, 11020, 8343, 11018, 11022
10820, 8342, 11020, 11022, 11021
10821, 10393, 11025, 11023, 7565
10822, 11025, 11020, 8342, 11023
10823, 11024, 8343, 11020, 11025
10824, 8191, 11024, 11025, 10393
10825, 10684, 11026, 10405, 7514
10826, 11026, 11024, 8191, 10405
10827, 11017, 8343, 11024, 11026
10828, 8261, 11017, 11026, 10684
10829, 9073, 11030, 11027, 7636
10830, 11030, 11028, 8345, 11027
10831, 11029, 8346, 11028, 11030
10832, 7840, 11029, 11030, 9073
10833, 10243, 11032, 9071, 7607
10834, 11032, 11029, 7840, 9071
10835, 11031, 8346, 11029, 11032
10836, 8150, 11031, 11032, 10243
10837, 11034, 11035, 10241, 7624
10838, 11035, 11031, 8150, 10241
10839, 11033, 8346, 11031, 11035
10840, 8344, 11033, 11035, 11034
10841, 11037, 11038, 11036, 7639
10842, 11038, 11033, 8344, 11036
10843, 11028, 8346, 11033, 11038
10844, 8345, 11028, 11038, 11037
10845, 10811, 11041, 10878, 7523
10846, 11041, 11039, 8309, 10878
10847, 11040, 8347, 11039, 11041
10848, 8298, 11040, 11041, 10811
10849, 8694, 11043, 10823, 7534
10850, 11043, 11040, 8298, 10823
10851, 11042, 8347, 11040, 11043
10852, 7717, 11042, 11043, 8694
10853, 9560, 11045, 8692, 7488
10854, 11045, 11042, 7717, 8692
10855, 11044, 8347, 11042, 11045
10856, 7972, 11044, 11045, 9560
10857, 10880, 11046, 9558, 7520
10858, 11046, 11044, 7972, 9558
10859, 11039, 8347, 11044, 11046
10860, 8309, 11039, 11046, 10880
10861, 11050, 11051, 11047, 7623
10862, 11051, 11048, 8350, 11047
10863, 11049, 8351, 11048, 11051
10864, 8348, 11049, 11051, 11050
10865, 11054, 11055, 11052, 7602
10866, 11055, 11049, 8348, 11052
10867, 11053, 8351, 11049, 11055
10868, 8349, 11053, 11055, 11054
10869, 8793, 11058, 11056, 7609
10870, 11058, 11053, 8349, 11056
10871, 11057, 8351, 11053, 11058
10872, 7754, 11057, 11058, 8793
10873, 11059, 11060, 8803, 7617
10874, 11060, 11057, 7754, 8803
10875, 11048, 8351, 11057, 11060
10876, 8350, 11048, 11060, 11059
10877, 11063, 11064, 8700, 7550
10878, 11064, 11061, 7720, 8700
10879, 11062, 8355, 11061, 11064
10880, 8352, 11062, 11064, 11063
10881, 11067, 11068, 11065, 7455
10882, 11068, 11062, 8352, 11065
10883, 11066, 8355, 11062, 11068
10884, 8353, 11066, 11068, 11067
10885, 11071, 11072, 11069, 7536
10886, 11072, 11066, 8353, 11069
10887, 11070, 8355, 11066, 11072
10888, 8354, 11070, 11072, 11071
10889, 8702, 11074, 11073, 7575
10890, 11074, 11070, 8354, 11073
10891, 11061, 8355, 11070, 11074
10892, 7720, 11061, 11074, 8702
10893, 11078, 11079, 11075, 7644
10894, 11079, 11076, 8359, 11075
10895, 11077, 8360, 11076, 11079
10896, 8356, 11077, 11079, 11078
10897, 11082, 11083, 11080, 7637
10898, 11083, 11077, 8356, 11080
10899, 11081, 8360, 11077, 11083
10900, 8357, 11081, 11083, 11082
10901, 11086, 11087, 11084, 7652
10902, 11087, 11081, 8357, 11084
10903, 11085, 8360, 11081, 11087
10904, 8358, 11085, 11087, 11086
10905, 11089, 11090, 11088, 7656
10906, 11090, 11085, 8358, 11088
10907, 11076, 8360, 11085, 11090
10908, 8359, 11076, 11090, 11089
10909, 11094, 11095, 11091, 7519
10910, 11095, 11092, 8363, 11091
10911, 11093, 8364, 11092, 11095
10912, 8361, 11093, 11095, 11094
10913, 11098, 11099, 11096, 7438
10914, 11099, 11093, 8361, 11096
10915, 11097, 8364, 11093, 11099
10916, 8362, 11097, 11099, 11098
10917, 11065, 11102, 11100, 7455
10918, 11102, 11097, 8362, 11100
10919, 11101, 8364, 11097, 11102
10920, 8352, 11101, 11102, 11065
10921, 11103, 11104, 11063, 7550
10922, 11104, 11101, 8352, 11063
10923, 11092, 8364, 11101, 11104
10924, 8363, 11092, 11104, 11103
10925, 591, 11107, 10760, 37
10926, 11107, 11105, 8282, 10760
10927, 11106, 8365, 11105, 11107
10928, 590, 11106, 11107, 591
10929, 9075, 11109, 589, 38
10930, 11109, 11106, 590, 589
10931, 11108, 8365, 11106, 11109
10932, 7844, 11108, 11109, 9075
10933, 8666, 11111, 9087, 7440
10934, 11111, 11108, 7844, 9087
10935, 11110, 8365, 11108, 11111
10936, 7708, 11110, 11111, 8666
10937, 10762, 11112, 8664, 7432
10938, 11112, 11110, 7708, 8664
10939, 11105, 8365, 11110, 11112
10940, 8282, 11105, 11112, 10762
10941, 10722, 11115, 744, 64
10942, 11115, 11113, 745, 744
10943, 11114, 8367, 11113, 11115
10944, 8273, 11114, 11115, 10722
10945, 9602, 11117, 10720, 7459
10946, 11117, 11114, 8273, 10720
10947, 11116, 8367, 11114, 11117
10948, 7983, 11116, 11117, 9602
10949, 11119, 11120, 9600, 7422
10950, 11120, 11116, 7983, 9600
10951, 11118, 8367, 11116, 11120
10952, 8366, 11118, 11120, 11119
10953, 746, 11122, 11121, 63
10954, 11122, 11118, 8366, 11121
10955, 11113, 8367, 11118, 11122
10956, 745, 11113, 11122, 746
10957, 11125, 11126, 10402, 7450
10958, 11126, 11123, 8190, 10402
10959, 11124, 8370, 11123, 11126
10960, 8368, 11124, 11126, 11125
10961, 11129, 11130, 11127, 7507
10962, 11130, 11124, 8368, 11127
10963, 11128, 8370, 11124, 11130
10964, 8369, 11128, 11130, 11129
10965, 10673, 11133, 11131, 7533
10966, 11133, 11128, 8369, 11131
10967, 11132, 8370, 11128, 11133
10968, 8262, 11132, 11133, 10673
10969, 10404, 11134, 10685, 7514
10970, 11134, 11132, 8262, 10685
10971, 11123, 8370, 11132, 11134
10972, 8190, 11123, 11134, 10404
10973, 11138, 11139, 11135, 7486
10974, 11139, 11136, 8372, 11135
10975, 11137, 8373, 11136, 11139
10976, 8371, 11137, 11139, 11138
10977, 9693, 11142, 11140, 7449
10978, 11142, 11137, 8371, 11140
10979, 11141, 8373, 11137, 11142
10980, 8011, 11141, 11142, 9693
10981, 9043, 11144, 9703, 7435
10982, 11144, 11141, 8011, 9703
10983, 11143, 8373, 11141, 11144
10984, 7831, 11143, 11144, 9043
10985, 11145, 11146, 9041, 7423
10986, 11146, 11143, 7831, 9041
10987, 11136, 8373, 11143, 11146
10988, 8372, 11136, 11146, 11145
10989, 11150, 11151, 11147, 7628
10990, 11151, 11148, 8375, 11147
10991, 11149, 8376, 11148, 11151
10992, 8374, 11149, 11151, 11150
10993, 10453, 11154, 11152, 7597
10994, 11154, 11149, 8374, 11152
10995, 11153, 8376, 11149, 11154
10996, 8205, 11153, 11154, 10453
10997, 9188, 11156, 10463, 7568
10998, 11156, 11153, 8205, 10463
10999, 11155, 8376, 11153, 11156
11000, 7873, 11155, 11156, 9188
11001, 11157, 11158, 9186, 7614
11002, 11158, 11155, 7873, 9186
11003, 11148, 8376, 11155, 11158
11004, 8375, 11148, 11158, 11157
11005, 11161, 11162, 10804, 7478
11006, 11162, 11159, 8293, 10804
11007, 11160, 8378, 11159, 11162
11008, 8377, 11160, 11162, 11161
11009, 666, 11165, 11163, 667
11010, 11165, 11160, 8377, 11163
11011, 11164, 8378, 11160, 11165
11012, 665, 11164, 11165, 666
11013, 9590, 11167, 664, 663
11014, 11167, 11164, 665, 664
11015, 11166, 8378, 11164, 11167
11016, 7980, 11166, 11167, 9590
11017, 10806, 11168, 9588, 7430
11018, 11168, 11166, 7980, 9588
11019, 11159, 8378, 11166, 11168
11020, 8293, 11159, 11168, 10806
11021, 10816, 11172, 11169, 7491
11022, 11172, 11170, 8380, 11169
11023, 11171, 8381, 11170, 11172
11024, 8296, 11171, 11172, 10816
11025, 11174, 11175, 10814, 7523
11026, 11175, 11171, 8296, 10814
11027, 11173, 8381, 11171, 11175
11028, 8379, 11173, 11175, 11174
11029, 8934, 11178, 11176, 7564
11030, 11178, 11173, 8379, 11176
11031, 11177, 8381, 11173, 11178
11032, 7797, 11177, 11178, 8934
11033, 11179, 11180, 8932, 7537
11034, 11180, 11177, 7797, 8932
11035, 11170, 8381, 11177, 11180
11036, 8380, 11170, 11180, 11179
11037, 10599, 11184, 11181, 7570
11038, 11184, 11182, 8382, 11181
11039, 11183, 8383, 11182, 11184
11040, 8243, 11183, 11184, 10599
11041, 8606, 11186, 10611, 7620
11042, 11186, 11183, 8243, 10611
11043, 11185, 8383, 11183, 11186
11044, 7688, 11185, 11186, 8606
11045, 10377, 11188, 8604, 7618
11046, 11188, 11185, 7688, 8604
11047, 11187, 8383, 11185, 11188
11048, 8187, 11187, 11188, 10377
11049, 11189, 11190, 10391, 7599
11050, 11190, 11187, 8187, 10391
11051, 11182, 8383, 11187, 11190
11052, 8382, 11182, 11190, 11189
11053, 10973, 11193, 11071, 7536
11054, 11193, 11191, 8354, 11071
11055, 11192, 8385, 11191, 11193
11056, 8334, 11192, 11193, 10973
11057, 11195, 11196, 10985, 7513
11058, 11196, 11192, 8334, 10985
11059, 11194, 8385, 11192, 11196
11060, 8384, 11194, 11196, 11195
11061, 10489, 11199, 11197, 7546
11062, 11199, 11194, 8384, 11197
11063, 11198, 8385, 11194, 11199
11064, 8214, 11198, 11199, 10489
11065, 11073, 11200, 10499, 7575
11066, 11200, 11198, 8214, 10499
11067, 11191, 8385, 11198, 11200
11068, 8354, 11191, 11200, 11073
11069, 10181, 11204, 11201, 7632
11070, 11204, 11202, 8387, 11201
11071, 11203, 8388, 11202, 11204
11072, 8137, 11203, 11204, 10181
11073, 11206, 11207, 10195, 7592
11074, 11207, 11203, 8137, 10195
11075, 11205, 8388, 11203, 11207
11076, 8386, 11205, 11207, 11206
11077, 9921, 11210, 11208, 7625
11078, 11210, 11205, 8386, 11208
11079, 11209, 8388, 11205, 11210
11080, 8071, 11209, 11210, 9921
11081, 11211, 11212, 9931, 7645
11082, 11212, 11209, 8071, 9931
11083, 11202, 8388, 11209, 11212
11084, 8387, 11202, 11212, 11211
11085, 10896, 11216, 11213, 7571
11086, 11216, 11214, 8390, 11213
11087, 11215, 8391, 11214, 11216
11088, 8313, 11215, 11216, 10896
11089, 9499, 11218, 10894, 7600
11090, 11218, 11215, 8313, 10894
11091, 11217, 8391, 11215, 11218
11092, 7959, 11217, 11218, 9499
11093, 11220, 11221, 9509, 7549
11094, 11221, 11217, 7959, 9509
11095, 11219, 8391, 11217, 11221
11096, 8389, 11219, 11221, 11220
11097, 11223, 11224, 11222, 7516
11098, 11224, 11219, 8389, 11222
11099, 11214, 8391, 11219, 11224
11100, 8390, 11214, 11224, 11223
11101, 11140, 11227, 10734, 7449
11102, 11227, 11225, 8276, 10734
11103, 11226, 8393, 11225, 11227
11104, 8371, 11226, 11227, 11140
11105, 11229, 11230, 11138, 7486
11106, 11230, 11226, 8371, 11138
11107, 11228, 8393, 11226, 11230
11108, 8392, 11228, 11230, 11229
11109, 11222, 11233, 11231, 7516
11110, 11233, 11228, 8392, 11231
11111, 11232, 8393, 11228, 11233
11112, 8389, 11232, 11233, 11222
11113, 10736, 11234, 11220, 7549
11114, 11234, 11232, 8389, 11220
11115, 11225, 8393, 11232, 11234
11116, 8276, 11225, 11234, 10736
11117, 11238, 11239, 11235, 7517
11118, 11239, 11236, 8396, 11235
11119, 11237, 8397, 11236, 11239
11120, 8394, 11237, 11239, 11238
11121, 9406, 11242, 11240, 7484
11122, 11242, 11237, 8394, 11240
11123, 11241, 8397, 11237, 11242
11124, 7931, 11241, 11242, 9406
11125, 11244, 11245, 9404, 7554
11126, 11245, 11241, 7931, 9404
11127, 11243, 8397, 11241, 11245
11128, 8395, 11243, 11245, 11244
11129, 11247, 11248, 11246, 7578
11130, 11248, 11243, 8395, 11246
11131, 11236, 8397, 11243, 11248
11132, 8396, 11236, 11248, 11247
11133, 10575, 11251, 11206, 7592
11134, 11251, 11249, 8386, 11206
11135, 11250, 8399, 11249, 11251
11136, 8235, 11250, 11251, 10575
11137, 11253, 11254, 10583, 7573
11138, 11254, 11250, 8235, 10583
11139, 11252, 8399, 11250, 11254
11140, 8398, 11252, 11254, 11253
11141, 9488, 11257, 11255, 7580
11142, 11257, 11252, 8398, 11255
11143, 11256, 8399, 11252, 11257
11144, 7953, 11256, 11257, 9488
11145, 11208, 11258, 9486, 7625
11146, 11258, 11256, 7953, 9486
11147, 11249, 8399, 11256, 11258
11148, 8386, 11249, 11258, 11208
11149, 11261, 11262, 8812, 7657
11150, 11262, 11259, 7757, 8812
11151, 11260, 8401, 11259, 11262
11152, 8400, 11260, 11262, 11261
11153, 10548, 11265, 11263, 7666
11154, 11265, 11260, 8400, 11263
11155, 11264, 8401, 11260, 11265
11156, 8227, 11264, 11265, 10548
11157, 9045, 11267, 10546, 7647
11158, 11267, 11264, 8227, 10546
11159, 11266, 8401, 11264, 11267
11160, 7836, 11266, 11267, 9045
11161, 8814, 11268, 9059, 7664
11162, 11268, 11266, 7836, 9059
11163, 11259, 8401, 11266, 11268
11164, 7757, 11259, 11268, 8814
11165, 11271, 11272, 10980, 7508
11166, 11272, 11269, 8333, 10980
11167, 11270, 8404, 11269, 11272
11168, 8402, 11270, 11272, 11271
11169, 10247, 11275, 11273, 7418
11170, 11275, 11270, 8402, 11273
11171, 11274, 8404, 11270, 11275
11172, 8153, 11274, 11275, 10247
11173, 11277, 11278, 10257, 7446
11174, 11278, 11274, 8153, 10257
11175, 11276, 8404, 11274, 11278
11176, 8403, 11276, 11278, 11277
11177, 10982, 11280, 11279, 7448
11178, 11280, 11276, 8403, 11279
11179, 11269, 8404, 11276, 11280
11180, 8333, 11269, 11280, 10982
11181, 10268, 11284, 11281, 7447
11182, 11284, 11282, 8406, 11281
11183, 11283, 8407, 11282, 11284
11184, 8155, 11283, 11284, 10268
11185, 11286, 11287, 10266, 7416
11186, 11287, 11283, 8155, 10266
11187, 11285, 8407, 11283, 11287
11188, 8405, 11285, 11287, 11286
11189, 11127, 11290, 11288, 7507
11190, 11290, 11285, 8405, 11288
11191, 11289, 8407, 11285, 11290
11192, 8368, 11289, 11290, 11127
11193, 11291, 11292, 11125, 7450
11194, 11292, 11289, 8368, 11125
11195, 11282, 8407, 11289, 11292
11196, 8406, 11282, 11292, 11291
11197, 11295, 11296, 8647, 7532
11198, 11296, 11293, 7702, 8647
11199, 11294, 8409, 11293, 11296
11200, 8408, 11294, 11296, 11295
11201, 11135, 11299, 11297, 7486
11202, 11299, 11294, 8408, 11297
11203, 11298, 8409, 11294, 11299
11204, 8372, 11298, 11299, 11135
11205, 9769, 11301, 11145, 7423
11206, 11301, 11298, 8372, 11145
11207, 11300, 8409, 11298, 11301
11208, 8029, 11300, 11301, 9769
11209, 8637, 11302, 9767, 7461
11210, 11302, 11300, 8029, 9767
11211, 11293, 8409, 11300, 11302
11212, 7702, 11293, 11302, 8637
11213, 11305, 11306, 8860, 7547
11214, 11306, 11303, 7773, 8860
11215, 11304, 8411, 11303, 11306
11216, 8410, 11304, 11306, 11305
11217, 8949, 11309, 11307, 7538
11218, 11309, 11304, 8410, 11307
11219, 11308, 8411, 11304, 11309
11220, 7806, 11308, 11309, 8949
11221, 11023, 11311, 8959, 7565
11222, 11311, 11308, 7806, 8959
11223, 11310, 8411, 11308, 11311
11224, 8342, 11310, 11311, 11023
11225, 8862, 11312, 11021, 7587
11226, 11312, 11310, 8342, 11021
11227, 11303, 8411, 11310, 11312
11228, 7773, 11303, 11312, 8862
11229, 11096, 11315, 10235, 7438
11230, 11315, 11313, 8148, 10235
11231, 11314, 8412, 11313, 11315
11232, 8361, 11314, 11315, 11096
11233, 9815, 11317, 11094, 7519
11234, 11317, 11314, 8361, 11094
11235, 11316, 8412, 11314, 11317
11236, 8044, 11316, 11317, 9815
11237, 10949, 11319, 9829, 7485
11238, 11319, 11316, 8044, 9829
11239, 11318, 8412, 11316, 11319
11240, 8325, 11318, 11319, 10949
11241, 10223, 11320, 10947, 7458
11242, 11320, 11318, 8325, 10947
11243, 11313, 8412, 11318, 11320
11244, 8148, 11313, 11320, 10223
11245, 8634, 11323, 10218, 7454
11246, 11323, 11321, 8143, 10218
11247, 11322, 8413, 11321, 11323
11248, 7697, 11322, 11323, 8634
11249, 10943, 11325, 8632, 7425
11250, 11325, 11322, 7697, 8632
11251, 11324, 8413, 11322, 11325
11252, 8324, 11324, 11325, 10943
11253, 10691, 11327, 10941, 7497
11254, 11327, 11324, 8324, 10941
11255, 11326, 8413, 11324, 11327
11256, 8264, 11326, 11327, 10691
11257, 10220, 11328, 10689, 7527
11258, 11328, 11326, 8264, 10689
11259, 11321, 8413, 11326, 11328
11260, 8143, 11321, 11328, 10220
11261, 11331, 11332, 10076, 7581
11262, 11332, 11329, 8108, 10076
11263, 11330, 8415, 11329, 11332
11264, 8414, 11330, 11332, 11331
11265, 9496, 11335, 11333, 7594
11266, 11335, 11330, 8414, 11333
11267, 11334, 8415, 11330, 11335
11268, 7955, 11334, 11335, 9496
11269, 10699, 11337, 9494, 7545
11270, 11337, 11334, 7955, 9494
11271, 11336, 8415, 11334, 11337
11272, 8266, 11336, 11337, 10699
11273, 10078, 11338, 10697, 7511
11274, 11338, 11336, 8266, 10697
11275, 11329, 8415, 11336, 11338
11276, 8108, 11329, 11338, 10078
11277, 8565, 11342, 11339, 7619
11278, 11342, 11340, 8416, 11339
11279, 11341, 8417, 11340, 11342
11280, 7678, 11341, 11342, 8565
11281, 11036, 11344, 8575, 7639
11282, 11344, 11341, 7678, 8575
11283, 11343, 8417, 11341, 11344
11284, 8344, 11343, 11344, 11036
11285, 8718, 11346, 11034, 7624
11286, 11346, 11343, 8344, 11034
11287, 11345, 8417, 11343, 11346
11288, 7725, 11345, 11346, 8718
11289, 11347, 11348, 8716, 7603
11290, 11348, 11345, 7725, 8716
11291, 11340, 8417, 11345, 11348
11292, 8416, 11340, 11348, 11347
11293, 11246, 11352, 11349, 7578
11294, 11352, 11350, 8418, 11349
11295, 11351, 8419, 11350, 11352
11296, 8395, 11351, 11352, 11246
11297, 9268, 11354, 11244, 7554
11298, 11354, 11351, 8395, 11244
11299, 11353, 8419, 11351, 11354
11300, 7895, 11353, 11354, 9268
11301, 8774, 11356, 9266, 7604
11302, 11356, 11353, 7895, 9266
11303, 11355, 8419, 11353, 11356
11304, 7744, 11355, 11356, 8774
11305, 11357, 11358, 8772, 7591
11306, 11358, 11355, 7744, 8772
11307, 11350, 8419, 11355, 11358
11308, 8418, 11350, 11358, 11357
11309, 9849, 11362, 11359, 7466
11310, 11362, 11360, 8421, 11359
11311, 11361, 8422, 11360, 11362
11312, 8050, 11361, 11362, 9849
11313, 655, 11364, 9847, 656
11314, 11364, 11361, 8050, 9847
11315, 11363, 8422, 11361, 11364
11316, 654, 11363, 11364, 655
11317, 11366, 11367, 653, 50
11318, 11367, 11363, 654, 653
11319, 11365, 8422, 11363, 11367
11320, 8420, 11365, 11367, 11366
11321, 11369, 11370, 11368, 7429
11322, 11370, 11365, 8420, 11368
11323, 11360, 8422, 11365, 11370
11324, 8421, 11360, 11370, 11369
11325, 11373, 11374, 9063, 7613
11326, 11374, 11371, 7838, 9063
11327, 11372, 8424, 11371, 11374
11328, 8423, 11372, 11374, 11373
11329, 9928, 11377, 11375, 7662
11330, 11377, 11372, 8423, 11375
11331, 11376, 8424, 11372, 11377
11332, 8070, 11376, 11377, 9928
11333, 11333, 11379, 9926, 7594
11334, 11379, 11376, 8070, 9926
11335, 11378, 8424, 11376, 11379
11336, 8414, 11378, 11379, 11333
11337, 9065, 11380, 11331, 7581
11338, 11380, 11378, 8414, 11331
11339, 11371, 8424, 11378, 11380
11340, 7838, 11371, 11380, 9065
11341, 11383, 11384, 10518, 7576
11342, 11384, 11381, 8220, 10518
11343, 11382, 8427, 11381, 11384
11344, 8425, 11382, 11384, 11383
11345, 8826, 11387, 11385, 7563
11346, 11387, 11382, 8425, 11385
11347, 11386, 8427, 11382, 11387
11348, 7761, 11386, 11387, 8826
11349, 11389, 11390, 8824, 7515
11350, 11390, 11386, 7761, 8824
11351, 11388, 8427, 11386, 11390
11352, 8426, 11388, 11390, 11389
11353, 10520, 11392, 11391, 7559
11354, 11392, 11388, 8426, 11391
11355, 11381, 8427, 11388, 11392
11356, 8220, 11381, 11392, 10520
11357, 11396, 11397, 11393, 7621
11358, 11397, 11394, 8429, 11393
11359, 11395, 8430, 11394, 11397
11360, 8428, 11395, 11397, 11396
11361, 9738, 11400, 11398, 7572
11362, 11400, 11395, 8428, 11398
11363, 11399, 8430, 11395, 11400
11364, 8021, 11399, 11400, 9738
11365, 11152, 11402, 9736, 7597
11366, 11402, 11399, 8021, 9736
11367, 11401, 8430, 11399, 11402
11368, 8374, 11401, 11402, 11152
11369, 11403, 11404, 11150, 7628
11370, 11404, 11401, 8374, 11150
11371, 11394, 8430, 11401, 11404
11372, 8429, 11394, 11404, 11403
11373, 10544, 11407, 9048, 7647
11374, 11407, 11405, 7833, 9048
11375, 11406, 8431, 11405, 11407
11376, 8226, 11406, 11407, 10544
11377, 8973, 11409, 10542, 7660
11378, 11409, 11406, 8226, 10542
11379, 11408, 8431, 11406, 11409
11380, 7814, 11408, 11409, 8973
11381, 11375, 11411, 8983, 7662
11382, 11411, 11408, 7814, 8983
11383, 11410, 8431, 11408, 11411
11384, 8423, 11410, 11411, 11375
11385, 9050, 11412, 11373, 7613
11386, 11412, 11410, 8423, 11373
11387, 11405, 8431, 11410, 11412
11388, 7833, 11405, 11412, 9050
11389, 8613, 11415, 10727, 7433
11390, 11415, 11413, 8274, 10727
11391, 11414, 8432, 11413, 11415
11392, 7694, 11414, 11415, 8613
11393, 9871, 11417, 8623, 7479
11394, 11417, 11414, 7694, 8623
11395, 11416, 8432, 11414, 11417
11396, 8059, 11416, 11417, 9871
11397, 8738, 11419, 9883, 7494
11398, 11419, 11416, 8059, 9883
11399, 11418, 8432, 11416, 11419
11400, 7732, 11418, 11419, 8738
11401, 10717, 11420, 8736, 7459
11402, 11420, 11418, 7732, 8736
11403, 11413, 8432, 11418, 11420
11404, 8274, 11413, 11420, 10717
11405, 8697, 11423, 11103, 7550
11406, 11423, 11421, 8363, 11103
11407, 11422, 8433, 11421, 11423
11408, 7722, 11422, 11423, 8697
11409, 8714, 11425, 8707, 7603
11410, 11425, 11422, 7722, 8707
11411, 11424, 8433, 11422, 11425
11412, 7724, 11424, 11425, 8714
11413, 9820, 11427, 8712, 7579
11414, 11427, 11424, 7724, 8712
11415, 11426, 8433, 11424, 11427
11416, 8041, 11426, 11427, 9820
11417, 11091, 11428, 9818, 7519
11418, 11428, 11426, 8041, 9818
11419, 11421, 8433, 11426, 11428
11420, 8363, 11421, 11428, 11091
11421, 9103, 11431, 8592, 7646
11422, 11431, 11429, 7684, 8592
11423, 11430, 8435, 11429, 11431
11424, 7853, 11430, 11431, 9103
11425, 9124, 11433, 9117, 7616
11426, 11433, 11430, 7853, 9117
11427, 11432, 8435, 11430, 11433
11428, 7855, 11432, 11433, 9124
11429, 11435, 11436, 9122, 7641
11430, 11436, 11432, 7855, 9122
11431, 11434, 8435, 11432, 11436
11432, 8434, 11434, 11436, 11435
11433, 8594, 11438, 11437, 7635
11434, 11438, 11434, 8434, 11437
11435, 11429, 8435, 11434, 11438
11436, 7684, 11429, 11438, 8594
11437, 8906, 11442, 11439, 7518
11438, 11442, 11440, 8437, 11439
11439, 11441, 8438, 11440, 11442
11440, 7788, 11441, 11442, 8906
11441, 11444, 11445, 8904, 7506
11442, 11445, 11441, 7788, 8904
11443, 11443, 8438, 11441, 11445
11444, 8436, 11443, 11445, 11444
11445, 10212, 11448, 11446, 7502
11446, 11448, 11443, 8436, 11446
11447, 11447, 8438, 11443, 11448
11448, 8141, 11447, 11448, 10212
11449, 11449, 11450, 10210, 7557
11450, 11450, 11447, 8141, 10210
11451, 11440, 8438, 11447, 11450
11452, 8437, 11440, 11450, 11449
11453, 10666, 11453, 9650, 7612
11454, 11453, 11451, 7997, 9650
11455, 11452, 8440, 11451, 11453
11456, 8257, 11452, 11453, 10666
11457, 8870, 11455, 10664, 7638
11458, 11455, 11452, 8257, 10664
11459, 11454, 8440, 11452, 11455
11460, 7776, 11454, 11455, 8870
11461, 11457, 11458, 8868, 7627
11462, 11458, 11454, 7776, 8868
11463, 11456, 8440, 11454, 11458
11464, 8439, 11456, 11458, 11457
11465, 9652, 11460, 11459, 7590
11466, 11460, 11456, 8439, 11459
11467, 11451, 8440, 11456, 11460
11468, 7997, 11451, 11460, 9652
11469, 11463, 11464, 11078, 7644
11470, 11464, 11461, 8356, 11078
11471, 11462, 8442, 11461, 11464
11472, 8441, 11462, 11464, 11463
11473, 10382, 11467, 11465, 7633
11474, 11467, 11462, 8441, 11465
11475, 11466, 8442, 11462, 11467
11476, 8184, 11466, 11467, 10382
11477, 8601, 11469, 10380, 7618
11478, 11469, 11466, 8184, 10380
11479, 11468, 8442, 11466, 11469
11480, 7690, 11468, 11469, 8601
11481, 11080, 11470, 8611, 7637
11482, 11470, 11468, 7690, 8611
11483, 11461, 8442, 11468, 11470
11484, 8356, 11461, 11470, 11080
11485, 11474, 11475, 11471, 7668
11486, 11475, 11472, 8444, 11471
11487, 11473, 8445, 11472, 11475
11488, 8443, 11473, 11475, 11474
11489, 8978, 11478, 11476, 7645
11490, 11478, 11473, 8443, 11476
11491, 11477, 8445, 11473, 11478
11492, 7812, 11477, 11478, 8978
11493, 10539, 11480, 8976, 7660
11494, 11480, 11477, 7812, 8976
11495, 11479, 8445, 11477, 11480
11496, 8228, 11479, 11480, 10539
11497, 11481, 11482, 10551, 7671
11498, 11482, 11479, 8228, 10551
11499, 11472, 8445, 11479, 11482
11500, 8444, 11472, 11482, 11481
11501, 11437, 11486, 11483, 7635
11502, 11486, 11484, 8446, 11483
11503, 11485, 8447, 11484, 11486
11504, 8434, 11485, 11486, 11437
11505, 10890, 11488, 11435, 7641
11506, 11488, 11485, 8434, 11435
11507, 11487, 8447, 11485, 11488
11508, 8312, 11487, 11488, 10890
11509, 11047, 11490, 10888, 7623
11510, 11490, 11487, 8312, 10888
11511, 11489, 8447, 11487, 11490
11512, 8350, 11489, 11490, 11047
11513, 11491, 11492, 11059, 7617
11514, 11492, 11489, 8350, 11059
11515, 11484, 8447, 11489, 11492
11516, 8446, 11484, 11492, 11491
11517, 10190, 11496, 11493, 7629
11518, 11496, 11494, 8448, 11493
11519, 11495, 8449, 11494, 11496
11520, 8135, 11495, 11496, 10190
11521, 8598, 11498, 10188, 7651
11522, 11498, 11495, 8135, 10188
11523, 11497, 8449, 11495, 11498
11524, 7685, 11497, 11498, 8598
11525, 11483, 11500, 8596, 7635
11526, 11500, 11497, 7685, 8596
11527, 11499, 8449, 11497, 11500
11528, 8446, 11499, 11500, 11483
11529, 11501, 11502, 11491, 7617
11530, 11502, 11499, 8446, 11491
11531, 11494, 8449, 11499, 11502
11532, 8448, 11494, 11502, 11501
11533, 9808, 11505, 11253, 7573
11534, 11505, 11503, 8398, 11253
11535, 11504, 8450, 11503, 11505
11536, 8037, 11504, 11505, 9808
11537, 11439, 11507, 9806, 7518
11538, 11507, 11504, 8037, 9806
11539, 11506, 8450, 11504, 11507
11540, 8437, 11506, 11507, 11439
11541, 10573, 11509, 11449, 7557
11542, 11509, 11506, 8437, 11449
11543, 11508, 8450, 11506, 11509
11544, 8233, 11508, 11509, 10573
11545, 11255, 11510, 10571, 7580
11546, 11510, 11508, 8233, 10571
11547, 11503, 8450, 11508, 11510
11548, 8398, 11503, 11510, 11255
11549, 8622, 11513, 9874, 7479
11550, 11513, 11511, 8057, 9874
11551, 11512, 8451, 11511, 11513
11552, 7693, 11512, 11513, 8622
11553, 10852, 11515, 8620, 7439
11554, 11515, 11512, 7693, 8620
11555, 11514, 8451, 11512, 11515
11556, 8303, 11514, 11515, 10852
11557, 8661, 11517, 10850, 7432
11558, 11517, 11514, 8303, 10850
11559, 11516, 8451, 11514, 11517
11560, 7710, 11516, 11517, 8661
11561, 9876, 11518, 8671, 7457
11562, 11518, 11516, 7710, 8671
11563, 11511, 8451, 11516, 11518
11564, 8057, 11511, 11518, 9876
11565, 10400, 11521, 11291, 7450
11566, 11521, 11519, 8406, 11291
11567, 11520, 8454, 11519, 11521
11568, 8189, 11520, 11521, 10400
11569, 11523, 11524, 10398, 7495
11570, 11524, 11520, 8189, 10398
11571, 11522, 8454, 11520, 11524
11572, 8452, 11522, 11524, 11523
11573, 11527, 11528, 11525, 7419
11574, 11528, 11522, 8452, 11525
11575, 11526, 8454, 11522, 11528
11576, 8453, 11526, 11528, 11527
11577, 11281, 11530, 11529, 7447
11578, 11530, 11526, 8453, 11529
11579, 11519, 8454, 11526, 11530
11580, 8406, 11519, 11530, 11281
11581, 11163, 11533, 668, 667
11582, 11533, 11531, 669, 668
11583, 11532, 8455, 11531, 11533
11584, 8377, 11532, 11533, 11163
11585, 10710, 11535, 11161, 7478
11586, 11535, 11532, 8377, 11161
11587, 11534, 8455, 11532, 11535
11588, 8269, 11534, 11535, 10710
11589, 11368, 11537, 10708, 7429
11590, 11537, 11534, 8269, 10708
11591, 11536, 8455, 11534, 11537
11592, 8420, 11536, 11537, 11368
11593, 670, 11538, 11366, 50
11594, 11538, 11536, 8420, 11366
11595, 11531, 8455, 11536, 11538
11596, 669, 11531, 11538, 670
11597, 9597, 11542, 11539, 7422
11598, 11542, 11540, 8456, 11539
11599, 11541, 8457, 11540, 11542
11600, 7985, 11541, 11542, 9597
11601, 10407, 11544, 9609, 7496
11602, 11544, 11541, 7985, 9609
11603, 11543, 8457, 11541, 11544
11604, 8196, 11543, 11544, 10407
11605, 11279, 11546, 10421, 7448
11606, 11546, 11543, 8196, 10421
11607, 11545, 8457, 11543, 11546
11608, 8403, 11545, 11546, 11279
11609, 11547, 11548, 11277, 7446
11610, 11548, 11545, 8403, 11277
11611, 11540, 8457, 11545, 11548
11612, 8456, 11540, 11548, 11547
11613, 10917, 11551, 11157, 7614
11614, 11551, 11549, 8375, 11157
11615, 11550, 8459, 11549, 11551
11616, 8318, 11550, 11551, 10917
11617, 11084, 11553, 10915, 7652
11618, 11553, 11550, 8318, 10915
11619, 11552, 8459, 11550, 11553
11620, 8357, 11552, 11553, 11084
11621, 11555, 11556, 11082, 7637
11622, 11556, 11552, 8357, 11082
11623, 11554, 8459, 11552, 11556
11624, 8458, 11554, 11556, 11555
11625, 11147, 11558, 11557, 7628
11626, 11558, 11554, 8458, 11557
11627, 11549, 8459, 11554, 11558
11628, 8375, 11549, 11558, 11147
11629, 8802, 11561, 11501, 7617
11630, 11561, 11559, 8448, 11501
11631, 11560, 8460, 11559, 11561
11632, 7753, 11560, 11561, 8802
11633, 10423, 11563, 8800, 7569
11634, 11563, 11560, 7753, 8800
11635, 11562, 8460, 11560, 11563
11636, 8198, 11562, 11563, 10423
11637, 8757, 11565, 10431, 7598
11638, 11565, 11562, 8198, 10431
11639, 11564, 8460, 11562, 11565
11640, 7742, 11564, 11565, 8757
11641, 11493, 11566, 8767, 7629
11642, 11566, 11564, 7742, 8767
11643, 11559, 8460, 11564, 11566
11644, 8448, 11559, 11566, 11493
11645, 11459, 11569, 10447, 7590
11646, 11569, 11567, 8202, 10447
11647, 11568, 8462, 11567, 11569
11648, 8439, 11568, 11569, 11459
11649, 11571, 11572, 11457, 7627
11650, 11572, 11568, 8439, 11457
11651, 11570, 8462, 11568, 11572
11652, 8461, 11570, 11572, 11571
11653, 10636, 11575, 11573, 7608
11654, 11575, 11570, 8461, 11573
11655, 11574, 8462, 11570, 11575
11656, 8249, 11574, 11575, 10636
11657, 10449, 11576, 10634, 7586
11658, 11576, 11574, 8249, 10634
11659, 11567, 8462, 11574, 11576
11660, 8202, 11567, 11576, 10449
11661, 8910, 11579, 10149, 7529
11662, 11579, 11577, 8126, 10149
11663, 11578, 8463, 11577, 11579
11664, 7789, 11578, 11579, 8910
11665, 9804, 11581, 8908, 7518
11666, 11581, 11578, 7789, 8908
11667, 11580, 8463, 11578, 11581
11668, 8036, 11580, 11581, 9804
11669, 10371, 11583, 9802, 7553
11670, 11583, 11580, 8036, 9802
11671, 11582, 8463, 11580, 11583
11672, 8182, 11582, 11583, 10371
11673, 10139, 11584, 10369, 7492
11674, 11584, 11582, 8182, 10369
11675, 11577, 8463, 11582, 11584
11676, 8126, 11577, 11584, 10139
11677, 9097, 11588, 11585, 7412
11678, 11588, 11586, 8464, 11585
11679, 11587, 8465, 11586, 11588
11680, 7847, 11587, 11588, 9097
11681, 10765, 11590, 9095, 7469
11682, 11590, 11587, 7847, 9095
11683, 11589, 8465, 11587, 11590
11684, 8285, 11589, 11590, 10765
11685, 10630, 11592, 10773, 7500
11686, 11592, 11589, 8285, 10773
11687, 11591, 8465, 11589, 11592
11688, 8248, 11591, 11592, 10630
11689, 11593, 11594, 10628, 7452
11690, 11594, 11591, 8248, 10628
11691, 11586, 8465, 11591, 11594
11692, 8464, 11586, 11594, 11593
11693, 11598, 11599, 11595, 7431
11694, 11599, 11596, 8468, 11595
11695, 11597, 8469, 11596, 11599
11696, 8466, 11597, 11599, 11598
11697, 11602, 11603, 11600, 7453
11698, 11603, 11597, 8466, 11600
11699, 11601, 8469, 11597, 11603
11700, 8467, 11601, 11603, 11602
11701, 8992, 11606, 11604, 7416
11702, 11606, 11601, 8467, 11604
11703, 11605, 8469, 11601, 11606
11704, 7816, 11605, 11606, 8992
11705, 11607, 11608, 8990, 611
11706, 11608, 11605, 7816, 8990
11707, 11596, 8469, 11605, 11608
11708, 8468, 11596, 11608, 11607
11709, 11611, 11612, 9003, 7418
11710, 11612, 11609, 7820, 9003
11711, 11610, 8471, 11609, 11612
11712, 8470, 11610, 11612, 11611
11713, 11100, 11615, 11613, 7455
11714, 11615, 11610, 8470, 11613
11715, 11614, 8471, 11610, 11615
11716, 8362, 11614, 11615, 11100
11717, 10234, 11617, 11098, 7438
11718, 11617, 11614, 8362, 11098
11719, 11616, 8471, 11614, 11617
11720, 8147, 11616, 11617, 10234
11721, 8995, 11618, 10232, 730
11722, 11618, 11616, 8147, 10232
11723, 11609, 8471, 11616, 11618
11724, 7820, 11609, 11618, 8995
11725, 11476, 11621, 11211, 7645
11726, 11621, 11619, 8387, 11211
11727, 11620, 8474, 11619, 11621
11728, 8443, 11620, 11621, 11476
11729, 11623, 11624, 11474, 7668
11730, 11624, 11620, 8443, 11474
11731, 11622, 8474, 11620, 11624
11732, 8472, 11622, 11624, 11623
11733, 11627, 11628, 11625, 7658
11734, 11628, 11622, 8472, 11625
11735, 11626, 8474, 11622, 11628
11736, 8473, 11626, 11628, 11627
11737, 11201, 11630, 11629, 7632
11738, 11630, 11626, 8473, 11629
11739, 11619, 8474, 11626, 11630
11740, 8387, 11619, 11630, 11201
11741, 10327, 11634, 11631, 7631
11742, 11634, 11632, 8475, 11631
11743, 11633, 8476, 11632, 11634
11744, 8172, 11633, 11634, 10327
11745, 9353, 11636, 10325, 7622
11746, 11636, 11633, 8172, 10325
11747, 11635, 8476, 11633, 11636
11748, 7920, 11635, 11636, 9353
11749, 8874, 11638, 9365, 7642
11750, 11638, 11635, 7920, 9365
11751, 11637, 8476, 11635, 11638
11752, 7777, 11637, 11638, 8874
11753, 11639, 11640, 8872, 7638
11754, 11640, 11637, 7777, 8872
11755, 11632, 8476, 11637, 11640
11756, 8475, 11632, 11640, 11639
11757, 9567, 11643, 11444, 7506
11758, 11643, 11641, 8436, 11444
11759, 11642, 8477, 11641, 11643
11760, 7975, 11642, 11643, 9567
11761, 9431, 11645, 9565, 7413
11762, 11645, 11642, 7975, 9565
11763, 11644, 8477, 11642, 11645
11764, 7939, 11644, 11645, 9431
11765, 10537, 11647, 9429, 7475
11766, 11647, 11644, 7939, 9429
11767, 11646, 8477, 11644, 11647
11768, 8224, 11646, 11647, 10537
11769, 11446, 11648, 10535, 7502
11770, 11648, 11646, 8224, 10535
11771, 11641, 8477, 11646, 11648
11772, 8436, 11641, 11648, 11446
11773, 617, 11651, 8556, 43
11774, 11651, 11649, 7672, 8556
11775, 11650, 8479, 11649, 11651
11776, 616, 11650, 11651, 617
11777, 9101, 11653, 615, 44
11778, 11653, 11650, 616, 615
11779, 11652, 8479, 11650, 11653
11780, 7848, 11652, 11653, 9101
11781, 11655, 11656, 9099, 7412
11782, 11656, 11652, 7848, 9099
11783, 11654, 8479, 11652, 11656
11784, 8478, 11654, 11656, 11655
11785, 8558, 11658, 11657, 7434
11786, 11658, 11654, 8478, 11657
11787, 11649, 8479, 11654, 11658
11788, 7672, 11649, 11658, 8558
11789, 10475, 11661, 724, 60
11790, 11661, 11659, 725, 724
11791, 11660, 8480, 11659, 11661
11792, 8208, 11660, 11661, 10475
11793, 8630, 11663, 10473, 7425
11794, 11663, 11660, 8208, 10473
11795, 11662, 8480, 11660, 11663
11796, 7696, 11662, 11663, 8630
11797, 9441, 11665, 8628, 7443
11798, 11665, 11662, 7696, 8628
11799, 11664, 8480, 11662, 11665
11800, 7942, 11664, 11665, 9441
11801, 726, 11666, 9439, 59
11802, 11666, 11664, 7942, 9439
11803, 11659, 8480, 11664, 11666
11804, 725, 11659, 11666, 726
11805, 10155, 11669, 8928, 7483
11806, 11669, 11667, 7796, 8928
11807, 11668, 8482, 11667, 11669
11808, 8128, 11668, 11669, 10155
11809, 9853, 11671, 10153, 7421
11810, 11671, 11668, 8128, 10153
11811, 11670, 8482, 11668, 11671
11812, 8051, 11670, 11671, 9853
11813, 11673, 11674, 9851, 7466
11814, 11674, 11670, 8051, 9851
11815, 11672, 8482, 11670, 11674
11816, 8481, 11672, 11674, 11673
11817, 8930, 11676, 11675, 7537
11818, 11676, 11672, 8481, 11675
11819, 11667, 8482, 11672, 11676
11820, 7796, 11667, 11676, 8930
11821, 11680, 11681, 11677, 7567
11822, 11681, 11678, 8484, 11677
11823, 11679, 8485, 11678, 11681
11824, 8483, 11679, 11681, 11680
11825, 11349, 11684, 11682, 7578
11826, 11684, 11679, 8483, 11682
11827, 11683, 8485, 11679, 11684
11828, 8418, 11683, 11684, 11349
11829, 8570, 11686, 11357, 7591
11830, 11686, 11683, 8418, 11357
11831, 11685, 8485, 11683, 11686
11832, 7676, 11685, 11686, 8570
11833, 11687, 11688, 8568, 7619
11834, 11688, 11685, 7676, 8568
11835, 11678, 8485, 11685, 11688
11836, 8484, 11678, 11688, 11687
11837, 10186, 11691, 8599, 7651
11838, 11691, 11689, 7686, 8599
11839, 11690, 8486, 11689, 11691
11840, 8134, 11690, 11691, 10186
11841, 11629, 11693, 10184, 7632
11842, 11693, 11690, 8134, 10184
11843, 11692, 8486, 11690, 11693
11844, 8473, 11692, 11693, 11629
11845, 10106, 11695, 11627, 7658
11846, 11695, 11692, 8473, 11627
11847, 11694, 8486, 11692, 11695
11848, 8114, 11694, 11695, 10106
11849, 8589, 11696, 10104, 7646
11850, 11696, 11694, 8114, 10104
11851, 11689, 8486, 11694, 11696
11852, 7686, 11689, 11696, 8589
11853, 11699, 11700, 11223, 7516
11854, 11700, 11697, 8390, 11223
11855, 11698, 8489, 11697, 11700
11856, 8487, 11698, 11700, 11699
11857, 11385, 11703, 11701, 7563
11858, 11703, 11698, 8487, 11701
11859, 11702, 8489, 11698, 11703
11860, 8425, 11702, 11703, 11385
11861, 11705, 11706, 11383, 7576
11862, 11706, 11702, 8425, 11383
11863, 11704, 8489, 11702, 11706
11864, 8488, 11704, 11706, 11705
11865, 11213, 11708, 11707, 7571
11866, 11708, 11704, 8488, 11707
11867, 11697, 8489, 11704, 11708
11868, 8390, 11697, 11708, 11213
11869, 10256, 11711, 11547, 7446
11870, 11711, 11709, 8456, 11547
11871, 11710, 8490, 11709, 11711
11872, 8152, 11710, 11711, 10256
11873, 743, 11713, 10254, 62
11874, 11713, 11710, 8152, 10254
11875, 11712, 8490, 11710, 11713
11876, 742, 11712, 11713, 743
11877, 11121, 11715, 741, 63
11878, 11715, 11712, 742, 741
11879, 11714, 8490, 11712, 11715
11880, 8366, 11714, 11715, 11121
11881, 11539, 11716, 11119, 7422
11882, 11716, 11714, 8366, 11119
11883, 11709, 8490, 11714, 11716
11884, 8456, 11709, 11716, 11539
11885, 600, 11720, 11717, 40
11886, 11720, 11718, 8491, 11717
11887, 11719, 8492, 11718, 11720
11888, 599, 11719, 11720, 600
11889, 10259, 11722, 598, 41
11890, 11722, 11719, 599, 598
11891, 11721, 8492, 11719, 11722
11892, 8156, 11721, 11722, 10259
11893, 11529, 11724, 10269, 7447
11894, 11724, 11721, 8156, 10269
11895, 11723, 8492, 11721, 11724
11896, 8453, 11723, 11724, 11529
11897, 11725, 11726, 11527, 7419
11898, 11726, 11723, 8453, 11527
11899, 11718, 8492, 11723, 11726
11900, 8491, 11718, 11726, 11725
11901, 8754, 11730, 11727, 7605
11902, 11730, 11728, 8493, 11727
11903, 11729, 8494, 11728, 11730
11904, 7737, 11729, 11730, 8754
11905, 8781, 11732, 8752, 7543
11906, 11732, 11729, 7737, 8752
11907, 11731, 8494, 11729, 11732
11908, 7750, 11731, 11732, 8781
11909, 11677, 11734, 8791, 7567
11910, 11734, 11731, 7750, 8791
11911, 11733, 8494, 11731, 11734
11912, 8484, 11733, 11734, 11677
11913, 11735, 11736, 11687, 7619
11914, 11736, 11733, 8484, 11687
11915, 11728, 8494, 11733, 11736
11916, 8493, 11728, 11736, 11735
11917, 11740, 11741, 11737, 7517
11918, 11741, 11738, 8496, 11737
11919, 11739, 8497, 11738, 11741
11920, 8495, 11739, 11741, 11740
11921, 10961, 11744, 11742, 7556
11922, 11744, 11739, 8495, 11742
11923, 11743, 8497, 11739, 11744
11924, 8330, 11743, 11744, 10961
11925, 11600, 11746, 10971, 7453
11926, 11746, 11743, 8330, 10971
11927, 11745, 8497, 11743, 11746
11928, 8466, 11745, 11746, 11600
11929, 11747, 11748, 11598, 7431
11930, 11748, 11745, 8466, 11598
11931, 11738, 8497, 11745, 11748
11932, 8496, 11738, 11748, 11747
11933, 8706, 11751, 11347, 7603
11934, 11751, 11749, 8416, 11347
11935, 11750, 8498, 11749, 11751
11936, 7721, 11750, 11751, 8706
11937, 10498, 11753, 8704, 7575
11938, 11753, 11750, 7721, 8704
11939, 11752, 8498, 11750, 11753
11940, 8213, 11752, 11753, 10498
11941, 11727, 11755, 10496, 7605
11942, 11755, 11752, 8213, 10496
11943, 11754, 8498, 11752, 11755
11944, 8493, 11754, 11755, 11727
11945, 11339, 11756, 11735, 7619
11946, 11756, 11754, 8493, 11735
11947, 11749, 8498, 11754, 11756
11948, 8416, 11749, 11756, 11339
11949, 11682, 11759, 11247, 7578
11950, 11759, 11757, 8396, 11247
11951, 11758, 8499, 11757, 11759
11952, 8483, 11758, 11759, 11682
11953, 8790, 11761, 11680, 7567
11954, 11761, 11758, 8483, 11680
11955, 11760, 8499, 11758, 11761
11956, 7749, 11760, 11761, 8790
11957, 11742, 11763, 8788, 7556
11958, 11763, 11760, 7749, 8788
11959, 11762, 8499, 11760, 11763
11960, 8495, 11762, 11763, 11742
11961, 11235, 11764, 11740, 7517
11962, 11764, 11762, 8495, 11740
11963, 11757, 8499, 11762, 11764
11964, 8396, 11757, 11764, 11235
11965, 11767, 11768, 11725, 7419
11966, 11768, 11765, 8491, 11725
11967, 11766, 8501, 11765, 11768
11968, 8500, 11766, 11768, 11767
11969, 9082, 11771, 11769, 7462
11970, 11771, 11766, 8500, 11769
11971, 11770, 8501, 11766, 11771
11972, 7842, 11770, 11771, 9082
11973, 597, 11773, 9080, 39
11974, 11773, 11770, 7842, 9080
11975, 11772, 8501, 11770, 11773
11976, 596, 11772, 11773, 597
11977, 11717, 11774, 595, 40
11978, 11774, 11772, 596, 595
11979, 11765, 8501, 11772, 11774
11980, 8491, 11765, 11774, 11717
11981, 11777, 11778, 8839, 7659
11982, 11778, 11775, 7766, 8839
11983, 11776, 8504, 11775, 11778
11984, 8502, 11776, 11778, 11777
11985, 11075, 11781, 11779, 7644
11986, 11781, 11776, 8502, 11779
11987, 11780, 8504, 11776, 11781
11988, 8359, 11780, 11781, 11075
11989, 11783, 11784, 11089, 7656
11990, 11784, 11780, 8359, 11089
11991, 11782, 8504, 11780, 11784
11992, 8503, 11782, 11784, 11783
11993, 8829, 11786, 11785, 7655
11994, 11786, 11782, 8503, 11785
11995, 11775, 8504, 11782, 11786
11996, 7766, 11775, 11786, 8829
11997, 10991, 11789, 10056, 7542
11998, 11789, 11787, 8103, 10056
11999, 11788, 8505, 11787, 11789
12000, 8336, 11788, 11789, 10991
12001, 8673, 11791, 10989, 7548
12002, 11791, 11788, 8336, 10989
12003, 11790, 8505, 11788, 11791
12004, 7714, 11790, 11791, 8673
12005, 9140, 11793, 8683, 7663
12006, 11793, 11790, 7714, 8683
12007, 11792, 8505, 11790, 11793
12008, 7860, 11792, 11793, 9140
12009, 10058, 11794, 9138, 7593
12010, 11794, 11792, 7860, 9138
12011, 11787, 8505, 11792, 11794
12012, 8103, 11787, 11794, 10058
12013, 10659, 11797, 11777, 7659
12014, 11797, 11795, 8502, 11777
12015, 11796, 8506, 11795, 11797
12016, 8255, 11796, 11797, 10659
12017, 10553, 11799, 10657, 7640
12018, 11799, 11796, 8255, 10657
12019, 11798, 8506, 11796, 11799
12020, 8230, 11798, 11799, 10553
12021, 11465, 11801, 10561, 7633
12022, 11801, 11798, 8230, 10561
12023, 11800, 8506, 11798, 11801
12024, 8441, 11800, 11801, 11465
12025, 11779, 11802, 11463, 7644
12026, 11802, 11800, 8441, 11463
12027, 11795, 8506, 11800, 11802
12028, 8502, 11795, 11802, 11779
12029, 10822, 11805, 8695, 7534
12030, 11805, 11803, 7718, 8695
12031, 11804, 8507, 11803, 11805
12032, 8297, 11804, 11805, 10822
12033, 10799, 11807, 10820, 7504
12034, 11807, 11804, 8297, 10820
12035, 11806, 8507, 11804, 11807
12036, 8294, 11806, 11807, 10799
12037, 10310, 11809, 10809, 7460
12038, 11809, 11806, 8294, 10809
12039, 11808, 8507, 11806, 11809
12040, 8167, 11808, 11809, 10310
12041, 8685, 11810, 10308, 7437
12042, 11810, 11808, 8167, 10308
12043, 11803, 8507, 11808, 11810
12044, 7718, 11803, 11810, 8685
12045, 11557, 11813, 11403, 7628
12046, 11813, 11811, 8429, 11403
12047, 11812, 8508, 11811, 11813
12048, 8458, 11812, 11813, 11557
12049, 8610, 11815, 11555, 7637
12050, 11815, 11812, 8458, 11555
12051, 11814, 8508, 11812, 11815
12052, 7689, 11814, 11815, 8610
12053, 10610, 11817, 8608, 7620
12054, 11817, 11814, 7689, 8608
12055, 11816, 8508, 11814, 11817
12056, 8242, 11816, 11817, 10610
12057, 11393, 11818, 10608, 7621
12058, 11818, 11816, 8242, 10608
12059, 11811, 8508, 11816, 11818
12060, 8429, 11811, 11818, 11393
12061, 9086, 11821, 8668, 7440
12062, 11821, 11819, 7709, 8668
12063, 11820, 8509, 11819, 11821
12064, 7843, 11820, 11821, 9086
12065, 8654, 11823, 9084, 7462
12066, 11823, 11820, 7843, 9084
12067, 11822, 8509, 11820, 11823
12068, 7704, 11822, 11823, 8654
12069, 8942, 11825, 8652, 7487
12070, 11825, 11822, 7704, 8652
12071, 11824, 8509, 11822, 11825
12072, 7800, 11824, 11825, 8942
12073, 8670, 11826, 8940, 7457
12074, 11826, 11824, 7800, 8940
12075, 11819, 8509, 11824, 11826
12076, 7709, 11819, 11826, 8670
12077, 610, 11829, 11607, 611
12078, 11829, 11827, 8468, 11607
12079, 11828, 8512, 11827, 11829
12080, 609, 11828, 11829, 610
12081, 11831, 11832, 608, 607
12082, 11832, 11828, 609, 608
12083, 11830, 8512, 11828, 11832
12084, 8510, 11830, 11832, 11831
12085, 11835, 11836, 11833, 7456
12086, 11836, 11830, 8510, 11833
12087, 11834, 8512, 11830, 11836
12088, 8511, 11834, 11836, 11835
12089, 11595, 11838, 11837, 7431
12090, 11838, 11834, 8511, 11837
12091, 11827, 8512, 11834, 11838
12092, 8468, 11827, 11838, 11595
12093, 9333, 11841, 8728, 7661
12094, 11841, 11839, 7729, 8728
12095, 11840, 8513, 11839, 11841
12096, 7914, 11840, 11841, 9333
12097, 10099, 11843, 9341, 7654
12098, 11843, 11840, 7914, 9341
12099, 11842, 8513, 11840, 11843
12100, 8116, 11842, 11843, 10099
12101, 10585, 11845, 10111, 7667
12102, 11845, 11842, 8116, 10111
12103, 11844, 8513, 11842, 11845
12104, 8239, 11844, 11845, 10585
12105, 8730, 11846, 10597, 7669
12106, 11846, 11844, 8239, 10597
12107, 11839, 8513, 11844, 11846
12108, 7729, 11839, 11846, 8730
12109, 11849, 11850, 10671, 7650
12110, 11850, 11847, 8258, 10671
12111, 11848, 8515, 11847, 11850
12112, 8514, 11848, 11850, 11849
12113, 9667, 11853, 11851, 7657
12114, 11853, 11848, 8514, 11851
12115, 11852, 8515, 11848, 11853
12116, 8002, 11852, 11853, 9667
12117, 11631, 11855, 9665, 7631
12118, 11855, 11852, 8002, 9665
12119, 11854, 8515, 11852, 11855
12120, 8475, 11854, 11855, 11631
12121, 10661, 11856, 11639, 7638
12122, 11856, 11854, 8475, 11639
12123, 11847, 8515, 11854, 11856
12124, 8258, 11847, 11856, 10661
12125, 11859, 11860, 9474, 7577
12126, 11860, 11857, 7950, 9474
12127, 11858, 8518, 11857, 11860
12128, 8516, 11858, 11860, 11859
12129, 10625, 11863, 11861, 7452
12130, 11863, 11858, 8516, 11861
12131, 11862, 8518, 11858, 11863
12132, 8250, 11862, 11863, 10625
12133, 11865, 11866, 10637, 7608
12134, 11866, 11862, 8250, 10637
12135, 11864, 8518, 11862, 11866
12136, 8517, 11864, 11866, 11865
12137, 9476, 11868, 11867, 7595
12138, 11868, 11864, 8517, 11867
12139, 11857, 8518, 11864, 11868
12140, 7950, 11857, 11868, 9476
12141, 9659, 11871, 8779, 7615
12142, 11871, 11869, 7746, 8779
12143, 11870, 8520, 11869, 11871
12144, 8000, 11870, 11871, 9659
12145, 11873, 11874, 9657, 7648
12146, 11874, 11870, 8000, 9657
12147, 11872, 8520, 11870, 11874
12148, 8519, 11872, 11874, 11873
12149, 8574, 11877, 11875, 7639
12150, 11877, 11872, 8519, 11875
12151, 11876, 8520, 11872, 11877
12152, 7677, 11876, 11877, 8574
12153, 8769, 11878, 8572, 7591
12154, 11878, 11876, 7677, 8572
12155, 11869, 8520, 11876, 11878
12156, 7746, 11869, 11878, 8769
12157, 11197, 11881, 8964, 7546
12158, 11881, 11879, 7808, 8964
12159, 11880, 8521, 11879, 11881
12160, 8384, 11880, 11881, 11197
12161, 10416, 11883, 11195, 7513
12162, 11883, 11880, 8384, 11195
12163, 11882, 8521, 11880, 11883
12164, 8194, 11882, 11883, 10416
12165, 8853, 11885, 10414, 7561
12166, 11885, 11882, 8194, 10414
12167, 11884, 8521, 11882, 11885
12168, 7774, 11884, 11885, 8853
12169, 8966, 11886, 8863, 7587
12170, 11886, 11884, 7774, 8863
12171, 11879, 8521, 11884, 11886
12172, 7808, 11879, 11886, 8966
12173, 11088, 11890, 11887, 7656
12174, 11890, 11888, 8522, 11887
12175, 11889, 8523, 11888, 11890
12176, 8358, 11889, 11890, 11088
12177, 10913, 11892, 11086, 7652
12178, 11892, 11889, 8358, 11086
12179, 11891, 8523, 11889, 11892
12180, 8317, 11891, 11892, 10913
12181, 8721, 11894, 10911, 7649
12182, 11894, 11891, 8317, 10911
12183, 11893, 8523, 11891, 11894
12184, 7730, 11893, 11894, 8721
12185, 11895, 11896, 8731, 7669
12186, 11896, 11893, 7730, 8731
12187, 11888, 8523, 11893, 11896
12188, 8522, 11888, 11896, 11895
12189, 11701, 11899, 8827, 7563
12190, 11899, 11897, 7762, 8827
12191, 11898, 8524, 11897, 11899
12192, 8487, 11898, 11899, 11701
12193, 11231, 11901, 11699, 7516
12194, 11901, 11898, 8487, 11699
12195, 11900, 8524, 11898, 11901
12196, 8392, 11900, 11901, 11231
12197, 11297, 11903, 11229, 7486
12198, 11903, 11900, 8392, 11229
12199, 11902, 8524, 11900, 11903
12200, 8408, 11902, 11903, 11297
12201, 8817, 11904, 11295, 7532
12202, 11904, 11902, 8408, 11295
12203, 11897, 8524, 11902, 11904
12204, 7762, 11897, 11904, 8817
12205, 10034, 11907, 10524, 7584
12206, 11907, 11905, 8221, 10524
12207, 11906, 8525, 11905, 11907
12208, 8098, 11906, 11907, 10034
12209, 9540, 11909, 10032, 7544
12210, 11909, 11906, 8098, 10032
12211, 11908, 8525, 11906, 11909
12212, 7966, 11908, 11909, 9540
12213, 11056, 11911, 9538, 7609
12214, 11911, 11908, 7966, 9538
12215, 11910, 8525, 11908, 11911
12216, 8349, 11910, 11911, 11056
12217, 10526, 11912, 11054, 7602
12218, 11912, 11910, 8349, 11054
12219, 11905, 8525, 11910, 11912
12220, 8221, 11905, 11912, 10526
12221, 11240, 11915, 10797, 7484
12222, 11915, 11913, 8291, 10797
12223, 11914, 8526, 11913, 11915
12224, 8394, 11914, 11915, 11240
12225, 11737, 11917, 11238, 7517
12226, 11917, 11914, 8394, 11238
12227, 11916, 8526, 11914, 11917
12228, 8496, 11916, 11917, 11737
12229, 11837, 11919, 11747, 7431
12230, 11919, 11916, 8496, 11747
12231, 11918, 8526, 11916, 11919
12232, 8511, 11918, 11919, 11837
12233, 10787, 11920, 11835, 7456
12234, 11920, 11918, 8511, 11835
12235, 11913, 8526, 11918, 11920
12236, 8291, 11913, 11920, 10787
12237, 10792, 11923, 8563, 7562
12238, 11923, 11921, 7674, 8563
12239, 11922, 8527, 11921, 11923
12240, 8290, 11922, 11923, 10792
12241, 11833, 11925, 10790, 7456
12242, 11925, 11922, 8290, 10790
12243, 11924, 8527, 11922, 11925
12244, 8510, 11924, 11925, 11833
12245, 606, 11927, 11831, 607
12246, 11927, 11924, 8510, 11831
12247, 11926, 8527, 11924, 11927
12248, 605, 11926, 11927, 606
12249, 8553, 11928, 604, 43
12250, 11928, 11926, 605, 604
12251, 11921, 8527, 11926, 11928
12252, 7674, 11921, 11928, 8553
12253, 11052, 11931, 10527, 7602
12254, 11931, 11929, 8222, 10527
12255, 11930, 8528, 11929, 11931
12256, 8348, 11930, 11931, 11052
12257, 10885, 11933, 11050, 7623
12258, 11933, 11930, 8348, 11050
12259, 11932, 8528, 11930, 11933
12260, 8314, 11932, 11933, 10885
12261, 11707, 11935, 10897, 7571
12262, 11935, 11932, 8314, 10897
12263, 11934, 8528, 11932, 11935
12264, 8488, 11934, 11935, 11707
12265, 10515, 11936, 11705, 7576
12266, 11936, 11934, 8488, 11705
12267, 11929, 8528, 11934, 11936
12268, 8222, 11929, 11936, 10515
12269, 8946, 11939, 10959, 7535
12270, 11939, 11937, 8327, 10959
12271, 11938, 8529, 11937, 11939
12272, 7801, 11938, 11939, 8946
12273, 8649, 11941, 8944, 7487
12274, 11941, 11938, 7801, 8944
12275, 11940, 8529, 11938, 11941
12276, 7706, 11940, 11941, 8649
12277, 11307, 11943, 8659, 7538
12278, 11943, 11940, 7706, 8659
12279, 11942, 8529, 11940, 11943
12280, 8410, 11942, 11943, 11307
12281, 10951, 11944, 11305, 7547
12282, 11944, 11942, 8410, 11305
12283, 11937, 8529, 11942, 11944
12284, 8327, 11937, 11944, 10951
12285, 10505, 11948, 11945, 7670
12286, 11948, 11946, 8531, 11945
12287, 11947, 8532, 11946, 11948
12288, 8216, 11947, 11948, 10505
12289, 11950, 11951, 10503, 7655
12290, 11951, 11947, 8216, 10503
12291, 11949, 8532, 11947, 11951
12292, 8530, 11949, 11951, 11950
12293, 8582, 11954, 11952, 7665
12294, 11954, 11949, 8530, 11952
12295, 11953, 8532, 11949, 11954
12296, 7680, 11953, 11954, 8582
12297, 11955, 11956, 8580, 7666
12298, 11956, 11953, 7680, 8580
12299, 11946, 8532, 11953, 11956
12300, 8531, 11946, 11956, 11955
12301, 8822, 11960, 11957, 7515
12302, 11960, 11958, 8534, 11957
12303, 11959, 8535, 11958, 11960
12304, 7760, 11959, 11960, 8822
12305, 8646, 11962, 8820, 7532
12306, 11962, 11959, 7760, 8820
12307, 11961, 8535, 11959, 11962
12308, 7701, 11961, 11962, 8646
12309, 11964, 11965, 8644, 7509
12310, 11965, 11961, 7701, 8644
12311, 11963, 8535, 11961, 11965
12312, 8533, 11963, 11965, 11964
12313, 11967, 11968, 11966, 7493
12314, 11968, 11963, 8533, 11966
12315, 11958, 8535, 11963, 11968
12316, 8534, 11958, 11968, 11967
12317, 8954, 11971, 11523, 7495
12318, 11971, 11969, 8452, 11523
12319, 11970, 8536, 11969, 11971
12320, 7804, 11970, 11971, 8954
12321, 8658, 11973, 8952, 7538
12322, 11973, 11970, 7804, 8952
12323, 11972, 8536, 11970, 11973
12324, 7705, 11972, 11973, 8658
12325, 11769, 11975, 8656, 7462
12326, 11975, 11972, 7705, 8656
12327, 11974, 8536, 11972, 11975
12328, 8500, 11974, 11975, 11769
12329, 11525, 11976, 11767, 7419
12330, 11976, 11974, 8500, 11767
12331, 11969, 8536, 11974, 11976
12332, 8452, 11969, 11976, 11525
12333, 11657, 11979, 10743, 7434
12334, 11979, 11977, 8279, 10743
12335, 11978, 8537, 11977, 11979
12336, 8478, 11978, 11979, 11657
12337, 11585, 11981, 11655, 7412
12338, 11981, 11978, 8478, 11655
12339, 11980, 8537, 11978, 11981
12340, 8464, 11980, 11981, 11585
12341, 11861, 11983, 11593, 7452
12342, 11983, 11980, 8464, 11593
12343, 11982, 8537, 11980, 11983
12344, 8516, 11982, 11983, 11861
12345, 10745, 11984, 11859, 7577
12346, 11984, 11982, 8516, 11859
12347, 11977, 8537, 11982, 11984
12348, 8279, 11977, 11984, 10745
12349, 8841, 11987, 10007, 7474
12350, 11987, 11985, 8091, 10007
12351, 11986, 8538, 11985, 11987
12352, 7770, 11986, 11987, 8841
12353, 10825, 11989, 8851, 7503
12354, 11989, 11986, 7770, 8851
12355, 11988, 8538, 11986, 11989
12356, 8300, 11988, 11989, 10825
12357, 9793, 11991, 10833, 7481
12358, 11991, 11988, 8300, 10833
12359, 11990, 8538, 11988, 11991
12360, 8034, 11990, 11991, 9793
12361, 9999, 11992, 9791, 7417
12362, 11992, 11990, 8034, 9791
12363, 11985, 8538, 11990, 11992
12364, 8091, 11985, 11992, 9999
12365, 10639, 11995, 9750, 7480
12366, 11995, 11993, 8025, 9750
12367, 11994, 8539, 11993, 11995
12368, 8252, 11994, 11995, 10639
12369, 8898, 11997, 10647, 7505
12370, 11997, 11994, 8252, 10647
12371, 11996, 8539, 11994, 11997
12372, 7785, 11996, 11997, 8898
12373, 9779, 11999, 8896, 7471
12374, 11999, 11996, 7785, 8896
12375, 11998, 8539, 11996, 11999
12376, 8031, 11998, 11999, 9779
12377, 9752, 12000, 9777, 7441
12378, 12000, 11998, 8031, 9777
12379, 11993, 8539, 11998, 12000
12380, 8025, 11993, 12000, 9752
12381, 9388, 12003, 8884, 7582
12382, 12003, 12001, 7781, 8884
12383, 12002, 8540, 12001, 12003
12384, 7926, 12002, 12003, 9388
12385, 10284, 12005, 9386, 7541
12386, 12005, 12002, 7926, 9386
12387, 12004, 8540, 12002, 12005
12388, 8160, 12004, 12005, 10284
12389, 11181, 12007, 10282, 7570
12390, 12007, 12004, 8160, 10282
12391, 12006, 8540, 12004, 12007
12392, 8382, 12006, 12007, 11181
12393, 8886, 12008, 11189, 7599
12394, 12008, 12006, 8382, 11189
12395, 12001, 8540, 12006, 12008
12396, 7781, 12001, 12008, 8886
12397, 11957, 12011, 11389, 7515
12398, 12011, 12009, 8426, 11389
12399, 12010, 8541, 12009, 12011
12400, 8534, 12010, 12011, 11957
12401, 10292, 12013, 11967, 7493
12402, 12013, 12010, 8534, 11967
12403, 12012, 8541, 12010, 12013
12404, 8163, 12012, 12013, 10292
12405, 8913, 12015, 10290, 7528
12406, 12015, 12012, 8163, 10290
12407, 12014, 8541, 12012, 12015
12408, 7794, 12014, 12015, 8913
12409, 11391, 12016, 8923, 7559
12410, 12016, 12014, 7794, 8923
12411, 12009, 8541, 12014, 12016
12412, 8426, 12009, 12016, 11391
12413, 11675, 12019, 11179, 7537
12414, 12019, 12017, 8380, 11179
12415, 12018, 8542, 12017, 12019
12416, 8481, 12018, 12019, 11675
12417, 11359, 12021, 11673, 7466
12418, 12021, 12018, 8481, 11673
12419, 12020, 8542, 12018, 12021
12420, 8421, 12020, 12021, 11359
12421, 10706, 12023, 11369, 7429
12422, 12023, 12020, 8421, 11369
12423, 12022, 8542, 12020, 12023
12424, 8268, 12022, 12023, 10706
12425, 11169, 12024, 10704, 7491
12426, 12024, 12022, 8268, 10704
12427, 12017, 8542, 12022, 12024
12428, 8380, 12017, 12024, 11169
12429, 10606, 12027, 11396, 7621
12430, 12027, 12025, 8428, 11396
12431, 12026, 8543, 12025, 12027
12432, 8241, 12026, 12027, 10606
12433, 10621, 12029, 10604, 7601
12434, 12029, 12026, 8241, 10604
12435, 12028, 8543, 12026, 12029
12436, 8246, 12028, 12029, 10621
12437, 10871, 12031, 10619, 7610
12438, 12031, 12028, 8246, 10619
12439, 12030, 8543, 12028, 12031
12440, 8310, 12030, 12031, 10871
12441, 11398, 12032, 10883, 7572
12442, 12032, 12030, 8310, 10883
12443, 12025, 8543, 12030, 12032
12444, 8428, 12025, 12032, 11398
12445, 8805, 12035, 11873, 7648
12446, 12035, 12033, 8519, 11873
12447, 12034, 8544, 12033, 12035
12448, 7758, 12034, 12035, 8805
12449, 9058, 12037, 8815, 7664
12450, 12037, 12034, 7758, 8815
12451, 12036, 8544, 12034, 12037
12452, 7835, 12036, 12037, 9058
12453, 11027, 12039, 9056, 7636
12454, 12039, 12036, 7835, 9056
12455, 12038, 8544, 12036, 12039
12456, 8345, 12038, 12039, 11027
12457, 11875, 12040, 11037, 7639
12458, 12040, 12038, 8345, 11037
12459, 12033, 8544, 12038, 12040
12460, 8519, 12033, 12040, 11875
12461, 11887, 12043, 11783, 7656
12462, 12043, 12041, 8503, 11783
12463, 12042, 8545, 12041, 12043
12464, 8522, 12042, 12043, 11887
12465, 10596, 12045, 11895, 7669
12466, 12045, 12042, 8522, 11895
12467, 12044, 8545, 12042, 12045
12468, 8238, 12044, 12045, 10596
12469, 11952, 12047, 10594, 7665
12470, 12047, 12044, 8238, 10594
12471, 12046, 8545, 12044, 12047
12472, 8530, 12046, 12047, 11952
12473, 11785, 12048, 11950, 7655
12474, 12048, 12046, 8530, 11950
12475, 12041, 8545, 12046, 12048
12476, 8503, 12041, 12048, 11785
12477, 11851, 12051, 11261, 7657
12478, 12051, 12049, 8400, 11261
12479, 12050, 8546, 12049, 12051
12480, 8514, 12050, 12051, 11851
12481, 10509, 12053, 11849, 7650
12482, 12053, 12050, 8514, 11849
12483, 12052, 8546, 12050, 12053
12484, 8217, 12052, 12053, 10509
12485, 11945, 12055, 10507, 7670
12486, 12055, 12052, 8217, 10507
12487, 12054, 8546, 12052, 12055
12488, 8531, 12054, 12055, 11945
12489, 11263, 12056, 11955, 7666
12490, 12056, 12054, 8531, 11955
12491, 12049, 8546, 12054, 12056
12492, 8400, 12049, 12056, 11263
12493, 11011, 12059, 11005, 7465
12494, 12059, 12057, 8338, 11005
12495, 12058, 8547, 12057, 12059
12496, 8340, 12058, 12059, 11011
12497, 10296, 12061, 11009, 7424
12498, 12061, 12058, 8340, 11009
12499, 12060, 8547, 12058, 12061
12500, 8164, 12060, 12061, 10296
12501, 11966, 12063, 10294, 7493
12502, 12063, 12060, 8164, 10294
12503, 12062, 8547, 12060, 12063
12504, 8533, 12062, 12063, 11966
12505, 10997, 12064, 11964, 7509
12506, 12064, 12062, 8533, 11964
12507, 12057, 8547, 12062, 12064
12508, 8338, 12057, 12064, 10997
12509, 11867, 12067, 9362, 7595
12510, 12067, 12065, 7919, 9362
12511, 12066, 8548, 12065, 12067
12512, 8517, 12066, 12067, 11867
12513, 11573, 12069, 11865, 7608
12514, 12069, 12066, 8517, 11865
12515, 12068, 8548, 12066, 12069
12516, 8461, 12068, 12069, 11573
12517, 8865, 12071, 11571, 7627
12518, 12071, 12068, 8461, 11571
12519, 12070, 8548, 12068, 12071
12520, 7778, 12070, 12071, 8865
12521, 9364, 12072, 8875, 7642
12522, 12072, 12070, 7778, 8875
12523, 12065, 8548, 12070, 12072
12524, 7919, 12065, 12072, 9364
12525, 10617, 12075, 10874, 7610
12526, 12075, 12073, 8308, 10874
12527, 12074, 8549, 12073, 12075
12528, 8245, 12074, 12075, 10617
12529, 9420, 12077, 10615, 7583
12530, 12077, 12074, 8245, 10615
12531, 12076, 8549, 12074, 12077
12532, 7935, 12076, 12077, 9420
12533, 11176, 12079, 9418, 7564
12534, 12079, 12076, 7935, 9418
12535, 12078, 8549, 12076, 12079
12536, 8379, 12078, 12079, 11176
12537, 10876, 12080, 11174, 7523
12538, 12080, 12078, 8379, 11174
12539, 12073, 8549, 12078, 12080
12540, 8308, 12073, 12080, 10876
12541, 10110, 12083, 10588, 7667
12542, 12083, 12081, 8237, 10588
12543, 12082, 8550, 12081, 12083
12544, 8115, 12082, 12083, 10110
12545, 11625, 12085, 10108, 7658
12546, 12085, 12082, 8115, 10108
12547, 12084, 8550, 12082, 12085
12548, 8472, 12084, 12085, 11625
12549, 11471, 12087, 11623, 7668
12550, 12087, 12084, 8472, 11623
12551, 12086, 8550, 12084, 12087
12552, 8444, 12086, 12087, 11471
12553, 10590, 12088, 11481, 7671
12554, 12088, 12086, 8444, 11481
12555, 12081, 8550, 12086, 12088
12556, 8237, 12081, 12088, 10590
12557, 10978, 12091, 11271, 7508
12558, 12091, 12089, 8402, 11271
12559, 12090, 8551, 12089, 12091
12560, 8332, 12090, 12091, 10978
12561, 11069, 12093, 10976, 7536
12562, 12093, 12090, 8332, 10976
12563, 12092, 8551, 12090, 12093
12564, 8353, 12092, 12093, 11069
12565, 11613, 12095, 11067, 7455
12566, 12095, 12092, 8353, 11067
12567, 12094, 8551, 12092, 12095
12568, 8470, 12094, 12095, 11613
12569, 11273, 12096, 11611, 7418
12570, 12096, 12094, 8470, 11611
12571, 12089, 8551, 12094, 12096
12572, 8402, 12089, 12096, 11273
12573, 10970, 12099, 11602, 7453
12574, 12099, 12097, 8467, 11602
12575, 12098, 8552, 12097, 12099
12576, 8329, 12098, 12099, 10970
12577, 11131, 12101, 10968, 7533
12578, 12101, 12098, 8329, 10968
12579, 12100, 8552, 12098, 12101
12580, 8369, 12100, 12101, 11131
12581, 11288, 12103, 11129, 7507
12582, 12103, 12100, 8369, 11129
12583, 12102, 8552, 12100, 12103
12584, 8405, 12102, 12103, 11288
12585, 11604, 12104, 11286, 7416
12586, 12104, 12102, 8405, 11286
12587, 12097, 8552, 12102, 12104
12588, 8467, 12097, 12104, 11604
12589, 12333, 12334, 12330, 12117
12590, 12334, 12331, 12155, 12330
12591, 12332, 12156, 12331, 12334
12592, 12153, 12332, 12334, 12333
12593, 12337, 12338, 12335, 12135
12594, 12338, 12332, 12153, 12335
12595, 12336, 12156, 12332, 12338
12596, 12154, 12336, 12338, 12337
12597, 781, 12341, 12339, 782
12598, 12341, 12336, 12154, 12339
12599, 12340, 12156, 12336, 12341
12600, 780, 12340, 12341, 781
12601, 12342, 12343, 779, 778
12602, 12343, 12340, 780, 779
12603, 12331, 12156, 12340, 12343
12604, 12155, 12331, 12343, 12342
12605, 12347, 12348, 12344, 12112
12606, 12348, 12345, 12159, 12344
12607, 12346, 12160, 12345, 12348
12608, 12157, 12346, 12348, 12347
12609, 12351, 12352, 12349, 12119
12610, 12352, 12346, 12157, 12349
12611, 12350, 12160, 12346, 12352
12612, 12158, 12350, 12352, 12351
12613, 817, 12355, 12353, 818
12614, 12355, 12350, 12158, 12353
12615, 12354, 12160, 12350, 12355
12616, 816, 12354, 12355, 817
12617, 12356, 12357, 815, 814
12618, 12357, 12354, 816, 815
12619, 12345, 12160, 12354, 12357
12620, 12159, 12345, 12357, 12356
12621, 12361, 12362, 12358, 12114
12622, 12362, 12359, 12163, 12358
12623, 12360, 12164, 12359, 12362
12624, 12161, 12360, 12362, 12361
12625, 836, 12365, 12363, 837
12626, 12365, 12360, 12161, 12363
12627, 12364, 12164, 12360, 12365
12628, 835, 12364, 12365, 836
12629, 12367, 12368, 834, 833
12630, 12368, 12364, 835, 834
12631, 12366, 12164, 12364, 12368
12632, 12162, 12366, 12368, 12367
12633, 12370, 12371, 12369, 12116
12634, 12371, 12366, 12162, 12369
12635, 12359, 12164, 12366, 12371
12636, 12163, 12359, 12371, 12370
12637, 12375, 12376, 12372, 12120
12638, 12376, 12373, 12167, 12372
12639, 12374, 12168, 12373, 12376
12640, 12165, 12374, 12376, 12375
12641, 164, 12379, 12377, 165
12642, 12379, 12374, 12165, 12377
12643, 12378, 12168, 12374, 12379
12644, 163, 12378, 12379, 164
12645, 12381, 12382, 162, 161
12646, 12382, 12378, 163, 162
12647, 12380, 12168, 12378, 12382
12648, 12166, 12380, 12382, 12381
12649, 12384, 12385, 12383, 12109
12650, 12385, 12380, 12166, 12383
12651, 12373, 12168, 12380, 12385
12652, 12167, 12373, 12385, 12384
12653, 12389, 12390, 12386, 12111
12654, 12390, 12387, 12171, 12386
12655, 12388, 12172, 12387, 12390
12656, 12169, 12388, 12390, 12389
12657, 12393, 12394, 12391, 12118
12658, 12394, 12388, 12169, 12391
12659, 12392, 12172, 12388, 12394
12660, 12170, 12392, 12394, 12393
12661, 184, 12397, 12395, 185
12662, 12397, 12392, 12170, 12395
12663, 12396, 12172, 12392, 12397
12664, 183, 12396, 12397, 184
12665, 12398, 12399, 182, 181
12666, 12399, 12396, 183, 182
12667, 12387, 12172, 12396, 12399
12668, 12171, 12387, 12399, 12398
12669, 12403, 12404, 12400, 12110
12670, 12404, 12401, 12175, 12400
12671, 12402, 12176, 12401, 12404
12672, 12173, 12402, 12404, 12403
12673, 12407, 12408, 12405, 12121
12674, 12408, 12402, 12173, 12405
12675, 12406, 12176, 12402, 12408
12676, 12174, 12406, 12408, 12407
12677, 797, 12411, 12409, 798
12678, 12411, 12406, 12174, 12409
12679, 12410, 12176, 12406, 12411
12680, 796, 12410, 12411, 797
12681, 12412, 12413, 795, 794
12682, 12413, 12410, 796, 795
12683, 12401, 12176, 12410, 12413
12684, 12175, 12401, 12413, 12412
12685, 12416, 12417, 803, 802
12686, 12417, 12414, 804, 803
12687, 12415, 12180, 12414, 12417
12688, 12177, 12415, 12417, 12416
12689, 12420, 12421, 12418, 12130
12690, 12421, 12415, 12177, 12418
12691, 12419, 12180, 12415, 12421
12692, 12178, 12419, 12421, 12420
12693, 12424, 12425, 12422, 12105
12694, 12425, 12419, 12178, 12422
12695, 12423, 12180, 12419, 12425
12696, 12179, 12423, 12425, 12424
12697, 805, 12427, 12426, 806
12698, 12427, 12423, 12179, 12426
12699, 12414, 12180, 12423, 12427
12700, 804, 12414, 12427, 805
12701, 801, 12430, 12416, 802
12702, 12430, 12428, 12177, 12416
12703, 12429, 12182, 12428, 12430
12704, 800, 12429, 12430, 801
12705, 12409, 12432, 799, 798
12706, 12432, 12429, 800, 799
12707, 12431, 12182, 12429, 12432
12708, 12174, 12431, 12432, 12409
12709, 12434, 12435, 12407, 12121
12710, 12435, 12431, 12174, 12407
12711, 12433, 12182, 12431, 12435
12712, 12181, 12433, 12435, 12434
12713, 12418, 12437, 12436, 12130
12714, 12437, 12433, 12181, 12436
12715, 12428, 12182, 12433, 12437
12716, 12177, 12428, 12437, 12418
12717, 12441, 12442, 12438, 12131
12718, 12442, 12439, 12184, 12438
12719, 12440, 12185, 12439, 12442
12720, 12183, 12440, 12442, 12441
12721, 12386, 12445, 12443, 12111
12722, 12445, 12440, 12183, 12443
12723, 12444, 12185, 12440, 12445
12724, 12171, 12444, 12445, 12386
12725, 180, 12447, 12398, 181
12726, 12447, 12444, 12171, 12398
12727, 12446, 12185, 12444, 12447
12728, 179, 12446, 12447, 180
12729, 12448, 12449, 178, 177
12730, 12449, 12446, 179, 178
12731, 12439, 12185, 12446, 12449
12732, 12184, 12439, 12449, 12448
12733, 12400, 12453, 12450, 12110
12734, 12453, 12451, 12187, 12450
12735, 12452, 12188, 12451, 12453
12736, 12175, 12452, 12453, 12400
12737, 793, 12455, 12412, 794
12738, 12455, 12452, 12175, 12412
12739, 12454, 12188, 12452, 12455
12740, 792, 12454, 12455, 793
12741, 12457, 12458, 791, 790
12742, 12458, 12454, 792, 791
12743, 12456, 12188, 12454, 12458
12744, 12186, 12456, 12458, 12457
12745, 12460, 12461, 12459, 12134
12746, 12461, 12456, 12186, 12459
12747, 12451, 12188, 12456, 12461
12748, 12187, 12451, 12461, 12460
12749, 12465, 12466, 12462, 12108
12750, 12466, 12463, 12190, 12462
12751, 12464, 12191, 12463, 12466
12752, 12189, 12464, 12466, 12465
12753, 12459, 12469, 12467, 12134
12754, 12469, 12464, 12189, 12467
12755, 12468, 12191, 12464, 12469
12756, 12186, 12468, 12469, 12459
12757, 789, 12471, 12457, 790
12758, 12471, 12468, 12186, 12457
12759, 12470, 12191, 12468, 12471
12760, 788, 12470, 12471, 789
12761, 12472, 12473, 787, 786
12762, 12473, 12470, 788, 787
12763, 12463, 12191, 12470, 12473
12764, 12190, 12463, 12473, 12472
12765, 809, 12477, 12474, 810
12766, 12477, 12475, 12193, 12474
12767, 12476, 12194, 12475, 12477
12768, 808, 12476, 12477, 809
12769, 12426, 12479, 807, 806
12770, 12479, 12476, 808, 807
12771, 12478, 12194, 12476, 12479
12772, 12179, 12478, 12479, 12426
12773, 12481, 12482, 12424, 12105
12774, 12482, 12478, 12179, 12424
12775, 12480, 12194, 12478, 12482
12776, 12192, 12480, 12482, 12481
12777, 12484, 12485, 12483, 12132
12778, 12485, 12480, 12192, 12483
12779, 12475, 12194, 12480, 12485
12780, 12193, 12475, 12485, 12484
12781, 12474, 12488, 811, 810
12782, 12488, 12486, 812, 811
12783, 12487, 12196, 12486, 12488
12784, 12193, 12487, 12488, 12474
12785, 12490, 12491, 12484, 12132
12786, 12491, 12487, 12193, 12484
12787, 12489, 12196, 12487, 12491
12788, 12195, 12489, 12491, 12490
12789, 12344, 12494, 12492, 12112
12790, 12494, 12489, 12195, 12492
12791, 12493, 12196, 12489, 12494
12792, 12159, 12493, 12494, 12344
12793, 813, 12495, 12356, 814
12794, 12495, 12493, 12159, 12356
12795, 12486, 12196, 12493, 12495
12796, 812, 12486, 12495, 813
12797, 12339, 12498, 783, 782
12798, 12498, 12496, 784, 783
12799, 12497, 12198, 12496, 12498
12800, 12154, 12497, 12498, 12339
12801, 12500, 12501, 12337, 12135
12802, 12501, 12497, 12154, 12337
12803, 12499, 12198, 12497, 12501
12804, 12197, 12499, 12501, 12500
12805, 12462, 12504, 12502, 12108
12806, 12504, 12499, 12197, 12502
12807, 12503, 12198, 12499, 12504
12808, 12190, 12503, 12504, 12462
12809, 785, 12505, 12472, 786
12810, 12505, 12503, 12190, 12472
12811, 12496, 12198, 12503, 12505
12812, 784, 12496, 12505, 785
12813, 12508, 12509, 174, 173
12814, 12509, 12506, 175, 174
12815, 12507, 12201, 12506, 12509
12816, 12199, 12507, 12509, 12508
12817, 12512, 12513, 12510, 12106
12818, 12513, 12507, 12199, 12510
12819, 12511, 12201, 12507, 12513
12820, 12200, 12511, 12513, 12512
12821, 12438, 12516, 12514, 12131
12822, 12516, 12511, 12200, 12514
12823, 12515, 12201, 12511, 12516
12824, 12184, 12515, 12516, 12438
12825, 176, 12517, 12448, 177
12826, 12517, 12515, 12184, 12448
12827, 12506, 12201, 12515, 12517
12828, 175, 12506, 12517, 176
12829, 12521, 12522, 12518, 12129
12830, 12522, 12519, 12203, 12518
12831, 12520, 12204, 12519, 12522
12832, 12202, 12520, 12522, 12521
12833, 12510, 12525, 12523, 12106
12834, 12525, 12520, 12202, 12523
12835, 12524, 12204, 12520, 12525
12836, 12199, 12524, 12525, 12510
12837, 172, 12527, 12508, 173
12838, 12527, 12524, 12199, 12508
12839, 12526, 12204, 12524, 12527
12840, 171, 12526, 12527, 172
12841, 12528, 12529, 170, 169
12842, 12529, 12526, 171, 170
12843, 12519, 12204, 12526, 12529
12844, 12203, 12519, 12529, 12528
12845, 12518, 12533, 12530, 12129
12846, 12533, 12531, 12205, 12530
12847, 12532, 12206, 12531, 12533
12848, 12203, 12532, 12533, 12518
12849, 168, 12535, 12528, 169
12850, 12535, 12532, 12203, 12528
12851, 12534, 12206, 12532, 12535
12852, 167, 12534, 12535, 168
12853, 12377, 12537, 166, 165
12854, 12537, 12534, 167, 166
12855, 12536, 12206, 12534, 12537
12856, 12165, 12536, 12537, 12377
12857, 12538, 12539, 12375, 12120
12858, 12539, 12536, 12165, 12375
12859, 12531, 12206, 12536, 12539
12860, 12205, 12531, 12539, 12538
12861, 12543, 12544, 12540, 12133
12862, 12544, 12541, 12208, 12540
12863, 12542, 12209, 12541, 12544
12864, 12207, 12542, 12544, 12543
12865, 12383, 12547, 12545, 12109
12866, 12547, 12542, 12207, 12545
12867, 12546, 12209, 12542, 12547
12868, 12166, 12546, 12547, 12383
12869, 160, 12549, 12381, 161
12870, 12549, 12546, 12166, 12381
12871, 12548, 12209, 12546, 12549
12872, 159, 12548, 12549, 160
12873, 12550, 12551, 158, 157
12874, 12551, 12548, 159, 158
12875, 12541, 12209, 12548, 12551
12876, 12208, 12541, 12551, 12550
12877, 12554, 12555, 154, 153
12878, 12555, 12552, 155, 154
12879, 12553, 12212, 12552, 12555
12880, 12210, 12553, 12555, 12554
12881, 12558, 12559, 12556, 12107
12882, 12559, 12553, 12210, 12556
12883, 12557, 12212, 12553, 12559
12884, 12211, 12557, 12559, 12558
12885, 12540, 12562, 12560, 12133
12886, 12562, 12557, 12211, 12560
12887, 12561, 12212, 12557, 12562
12888, 12208, 12561, 12562, 12540
12889, 156, 12563, 12550, 157
12890, 12563, 12561, 12208, 12550
12891, 12552, 12212, 12561, 12563
12892, 155, 12552, 12563, 156
12893, 152, 12566, 12554, 153
12894, 12566, 12564, 12210, 12554
12895, 12565, 12215, 12564, 12566
12896, 151, 12565, 12566, 152
12897, 12568, 12569, 150, 149
12898, 12569, 12565, 151, 150
12899, 12567, 12215, 12565, 12569
12900, 12213, 12567, 12569, 12568
12901, 12572, 12573, 12570, 12136
12902, 12573, 12567, 12213, 12570
12903, 12571, 12215, 12567, 12573
12904, 12214, 12571, 12573, 12572
12905, 12556, 12575, 12574, 12107
12906, 12575, 12571, 12214, 12574
12907, 12564, 12215, 12571, 12575
12908, 12210, 12564, 12575, 12556
12909, 12578, 12579, 12403, 12110
12910, 12579, 12576, 12173, 12403
12911, 12577, 12219, 12576, 12579
12912, 12216, 12577, 12579, 12578
12913, 12582, 12583, 12580, 12125
12914, 12583, 12577, 12216, 12580
12915, 12581, 12219, 12577, 12583
12916, 12217, 12581, 12583, 12582
12917, 12586, 12587, 12584, 12147
12918, 12587, 12581, 12217, 12584
12919, 12585, 12219, 12581, 12587
12920, 12218, 12585, 12587, 12586
12921, 12405, 12589, 12588, 12121
12922, 12589, 12585, 12218, 12588
12923, 12576, 12219, 12585, 12589
12924, 12173, 12576, 12589, 12405
12925, 12436, 12593, 12590, 12130
12926, 12593, 12591, 12221, 12590
12927, 12592, 12222, 12591, 12593
12928, 12181, 12592, 12593, 12436
12929, 12588, 12595, 12434, 12121
12930, 12595, 12592, 12181, 12434
12931, 12594, 12222, 12592, 12595
12932, 12218, 12594, 12595, 12588
12933, 12597, 12598, 12586, 12147
12934, 12598, 12594, 12218, 12586
12935, 12596, 12222, 12594, 12598
12936, 12220, 12596, 12598, 12597
12937, 12600, 12601, 12599, 12140
12938, 12601, 12596, 12220, 12599
12939, 12591, 12222, 12596, 12601
12940, 12221, 12591, 12601, 12600
12941, 12590, 12604, 12420, 12130
12942, 12604, 12602, 12178, 12420
12943, 12603, 12225, 12602, 12604
12944, 12221, 12603, 12604, 12590
12945, 12606, 12607, 12600, 12140
12946, 12607, 12603, 12221, 12600
12947, 12605, 12225, 12603, 12607
12948, 12223, 12605, 12607, 12606
12949, 12610, 12611, 12608, 12141
12950, 12611, 12605, 12223, 12608
12951, 12609, 12225, 12605, 12611
12952, 12224, 12609, 12611, 12610
12953, 12422, 12613, 12612, 12105
12954, 12613, 12609, 12224, 12612
12955, 12602, 12225, 12609, 12613
12956, 12178, 12602, 12613, 12422
12957, 12530, 12617, 12614, 12129
12958, 12617, 12615, 12228, 12614
12959, 12616, 12229, 12615, 12617
12960, 12205, 12616, 12617, 12530
12961, 12619, 12620, 12538, 12120
12962, 12620, 12616, 12205, 12538
12963, 12618, 12229, 12616, 12620
12964, 12226, 12618, 12620, 12619
12965, 12623, 12624, 12621, 12146
12966, 12624, 12618, 12226, 12621
12967, 12622, 12229, 12618, 12624
12968, 12227, 12622, 12624, 12623
12969, 12626, 12627, 12625, 12142
12970, 12627, 12622, 12227, 12625
12971, 12615, 12229, 12622, 12627
12972, 12228, 12615, 12627, 12626
12973, 12630, 12631, 12384, 12109
12974, 12631, 12628, 12167, 12384
12975, 12629, 12232, 12628, 12631
12976, 12230, 12629, 12631, 12630
12977, 12634, 12635, 12632, 12124
12978, 12635, 12629, 12230, 12632
12979, 12633, 12232, 12629, 12635
12980, 12231, 12633, 12635, 12634
12981, 12621, 12638, 12636, 12146
12982, 12638, 12633, 12231, 12636
12983, 12637, 12232, 12633, 12638
12984, 12226, 12637, 12638, 12621
12985, 12372, 12639, 12619, 12120
12986, 12639, 12637, 12226, 12619
12987, 12628, 12232, 12637, 12639
12988, 12167, 12628, 12639, 12372
12989, 12614, 12642, 12521, 12129
12990, 12642, 12640, 12202, 12521
12991, 12641, 12235, 12640, 12642
12992, 12228, 12641, 12642, 12614
12993, 12644, 12645, 12626, 12142
12994, 12645, 12641, 12228, 12626
12995, 12643, 12235, 12641, 12645
12996, 12233, 12643, 12645, 12644
12997, 12648, 12649, 12646, 12143
12998, 12649, 12643, 12233, 12646
12999, 12647, 12235, 12643, 12649
13000, 12234, 12647, 12649, 12648
13001, 12523, 12651, 12650, 12106
13002, 12651, 12647, 12234, 12650
13003, 12640, 12235, 12647, 12651
13004, 12202, 12640, 12651, 12523
13005, 12654, 12655, 12606, 12140
13006, 12655, 12652, 12223, 12606
13007, 12653, 12238, 12652, 12655
13008, 12236, 12653, 12655, 12654
13009, 12636, 12658, 12656, 12146
13010, 12658, 12653, 12236, 12656
13011, 12657, 12238, 12653, 12658
13012, 12231, 12657, 12658, 12636
13013, 12660, 12661, 12634, 12124
13014, 12661, 12657, 12231, 12634
13015, 12659, 12238, 12657, 12661
13016, 12237, 12659, 12661, 12660
13017, 12608, 12663, 12662, 12141
13018, 12663, 12659, 12237, 12662
13019, 12652, 12238, 12659, 12663
13020, 12223, 12652, 12663, 12608
13021, 12666, 12667, 12597, 12147
13022, 12667, 12664, 12220, 12597
13023, 12665, 12240, 12664, 12667
13024, 12239, 12665, 12667, 12666
13025, 12625, 12670, 12668, 12142
13026, 12670, 12665, 12239, 12668
13027, 12669, 12240, 12665, 12670
13028, 12227, 12669, 12670, 12625
13029, 12656, 12672, 12623, 12146
13030, 12672, 12669, 12227, 12623
13031, 12671, 12240, 12669, 12672
13032, 12236, 12671, 12672, 12656
13033, 12599, 12673, 12654, 12140
13034, 12673, 12671, 12236, 12654
13035, 12664, 12240, 12671, 12673
13036, 12220, 12664, 12673, 12599
13037, 12646, 12677, 12674, 12143
13038, 12677, 12675, 12241, 12674
13039, 12676, 12242, 12675, 12677
13040, 12233, 12676, 12677, 12646
13041, 12668, 12679, 12644, 12142
13042, 12679, 12676, 12233, 12644
13043, 12678, 12242, 12676, 12679
13044, 12239, 12678, 12679, 12668
13045, 12584, 12681, 12666, 12147
13046, 12681, 12678, 12239, 12666
13047, 12680, 12242, 12678, 12681
13048, 12217, 12680, 12681, 12584
13049, 12682, 12683, 12582, 12125
13050, 12683, 12680, 12217, 12582
13051, 12675, 12242, 12680, 12683
13052, 12241, 12675, 12683, 12682
13053, 12686, 12687, 12558, 12107
13054, 12687, 12684, 12211, 12558
13055, 12685, 12246, 12684, 12687
13056, 12243, 12685, 12687, 12686
13057, 12690, 12691, 12688, 12144
13058, 12691, 12685, 12243, 12688
13059, 12689, 12246, 12685, 12691
13060, 12244, 12689, 12691, 12690
13061, 12694, 12695, 12692, 12148
13062, 12695, 12689, 12244, 12692
13063, 12693, 12246, 12689, 12695
13064, 12245, 12693, 12695, 12694
13065, 12560, 12697, 12696, 12133
13066, 12697, 12693, 12245, 12696
13067, 12684, 12246, 12693, 12697
13068, 12211, 12684, 12697, 12560
13069, 12700, 12701, 12694, 12148
13070, 12701, 12698, 12245, 12694
13071, 12699, 12248, 12698, 12701
13072, 12247, 12699, 12701, 12700
13073, 12632, 12704, 12702, 12124
13074, 12704, 12699, 12247, 12702
13075, 12703, 12248, 12699, 12704
13076, 12230, 12703, 12704, 12632
13077, 12545, 12706, 12630, 12109
13078, 12706, 12703, 12230, 12630
13079, 12705, 12248, 12703, 12706
13080, 12207, 12705, 12706, 12545
13081, 12696, 12707, 12543, 12133
13082, 12707, 12705, 12207, 12543
13083, 12698, 12248, 12705, 12707
13084, 12245, 12698, 12707, 12696
13085, 12711, 12712, 12708, 12145
13086, 12712, 12709, 12250, 12708
13087, 12710, 12251, 12709, 12712
13088, 12249, 12710, 12712, 12711
13089, 12580, 12715, 12713, 12125
13090, 12715, 12710, 12249, 12713
13091, 12714, 12251, 12710, 12715
13092, 12216, 12714, 12715, 12580
13093, 12450, 12717, 12578, 12110
13094, 12717, 12714, 12216, 12578
13095, 12716, 12251, 12714, 12717
13096, 12187, 12716, 12717, 12450
13097, 12718, 12719, 12460, 12134
13098, 12719, 12716, 12187, 12460
13099, 12709, 12251, 12716, 12719
13100, 12250, 12709, 12719, 12718
13101, 12702, 12722, 12660, 12124
13102, 12722, 12720, 12237, 12660
13103, 12721, 12254, 12720, 12722
13104, 12247, 12721, 12722, 12702
13105, 12724, 12725, 12700, 12148
13106, 12725, 12721, 12247, 12700
13107, 12723, 12254, 12721, 12725
13108, 12252, 12723, 12725, 12724
13109, 12728, 12729, 12726, 12149
13110, 12729, 12723, 12252, 12726
13111, 12727, 12254, 12723, 12729
13112, 12253, 12727, 12729, 12728
13113, 12662, 12731, 12730, 12141
13114, 12731, 12727, 12253, 12730
13115, 12720, 12254, 12727, 12731
13116, 12237, 12720, 12731, 12662
13117, 12734, 12735, 12490, 12132
13118, 12735, 12732, 12195, 12490
13119, 12733, 12258, 12732, 12735
13120, 12255, 12733, 12735, 12734
13121, 12738, 12739, 12736, 12149
13122, 12739, 12733, 12255, 12736
13123, 12737, 12258, 12733, 12739
13124, 12256, 12737, 12739, 12738
13125, 12742, 12743, 12740, 12138
13126, 12743, 12737, 12256, 12740
13127, 12741, 12258, 12737, 12743
13128, 12257, 12741, 12743, 12742
13129, 12492, 12745, 12744, 12112
13130, 12745, 12741, 12257, 12744
13131, 12732, 12258, 12741, 12745
13132, 12195, 12732, 12745, 12492
13133, 12612, 12748, 12481, 12105
13134, 12748, 12746, 12192, 12481
13135, 12747, 12259, 12746, 12748
13136, 12224, 12747, 12748, 12612
13137, 12730, 12750, 12610, 12141
13138, 12750, 12747, 12224, 12610
13139, 12749, 12259, 12747, 12750
13140, 12253, 12749, 12750, 12730
13141, 12736, 12752, 12728, 12149
13142, 12752, 12749, 12253, 12728
13143, 12751, 12259, 12749, 12752
13144, 12255, 12751, 12752, 12736
13145, 12483, 12753, 12734, 12132
13146, 12753, 12751, 12255, 12734
13147, 12746, 12259, 12751, 12753
13148, 12192, 12746, 12753, 12483
13149, 12756, 12757, 12441, 12131
13150, 12757, 12754, 12183, 12441
13151, 12755, 12263, 12754, 12757
13152, 12260, 12755, 12757, 12756
13153, 12760, 12761, 12758, 12150
13154, 12761, 12755, 12260, 12758
13155, 12759, 12263, 12755, 12761
13156, 12261, 12759, 12761, 12760
13157, 12764, 12765, 12762, 12127
13158, 12765, 12759, 12261, 12762
13159, 12763, 12263, 12759, 12765
13160, 12262, 12763, 12765, 12764
13161, 12443, 12767, 12766, 12111
13162, 12767, 12763, 12262, 12766
13163, 12754, 12263, 12763, 12767
13164, 12183, 12754, 12767, 12443
13165, 12650, 12770, 12512, 12106
13166, 12770, 12768, 12200, 12512
13167, 12769, 12265, 12768, 12770
13168, 12234, 12769, 12770, 12650
13169, 12772, 12773, 12648, 12143
13170, 12773, 12769, 12234, 12648
13171, 12771, 12265, 12769, 12773
13172, 12264, 12771, 12773, 12772
13173, 12758, 12776, 12774, 12150
13174, 12776, 12771, 12264, 12774
13175, 12775, 12265, 12771, 12776
13176, 12260, 12775, 12776, 12758
13177, 12514, 12777, 12756, 12131
13178, 12777, 12775, 12260, 12756
13179, 12768, 12265, 12775, 12777
13180, 12200, 12768, 12777, 12514
13181, 766, 12781, 12778, 767
13182, 12781, 12779, 12268, 12778
13183, 12780, 12269, 12779, 12781
13184, 765, 12780, 12781, 766
13185, 12783, 12784, 764, 763
13186, 12784, 12780, 765, 764
13187, 12782, 12269, 12780, 12784
13188, 12266, 12782, 12784, 12783
13189, 12787, 12788, 12785, 12115
13190, 12788, 12782, 12266, 12785
13191, 12786, 12269, 12782, 12788
13192, 12267, 12786, 12788, 12787
13193, 12790, 12791, 12789, 12128
13194, 12791, 12786, 12267, 12789
13195, 12779, 12269, 12786, 12791
13196, 12268, 12779, 12791, 12790
13197, 12713, 12794, 12682, 12125
13198, 12794, 12792, 12241, 12682
13199, 12793, 12271, 12792, 12794
13200, 12249, 12793, 12794, 12713
13201, 12796, 12797, 12711, 12145
13202, 12797, 12793, 12249, 12711
13203, 12795, 12271, 12793, 12797
13204, 12270, 12795, 12797, 12796
13205, 12774, 12800, 12798, 12150
13206, 12800, 12795, 12270, 12798
13207, 12799, 12271, 12795, 12800
13208, 12264, 12799, 12800, 12774
13209, 12674, 12801, 12772, 12143
13210, 12801, 12799, 12264, 12772
13211, 12792, 12271, 12799, 12801
13212, 12241, 12792, 12801, 12674
13213, 12692, 12804, 12724, 12148
13214, 12804, 12802, 12252, 12724
13215, 12803, 12273, 12802, 12804
13216, 12244, 12803, 12804, 12692
13217, 12806, 12807, 12690, 12144
13218, 12807, 12803, 12244, 12690
13219, 12805, 12273, 12803, 12807
13220, 12272, 12805, 12807, 12806
13221, 12740, 12810, 12808, 12138
13222, 12810, 12805, 12272, 12808
13223, 12809, 12273, 12805, 12810
13224, 12256, 12809, 12810, 12740
13225, 12726, 12811, 12738, 12149
13226, 12811, 12809, 12256, 12738
13227, 12802, 12273, 12809, 12811
13228, 12252, 12802, 12811, 12726
13229, 770, 12815, 12812, 771
13230, 12815, 12813, 12275, 12812
13231, 12814, 12276, 12813, 12815
13232, 769, 12814, 12815, 770
13233, 12778, 12817, 768, 767
13234, 12817, 12814, 769, 768
13235, 12816, 12276, 12814, 12817
13236, 12268, 12816, 12817, 12778
13237, 12819, 12820, 12790, 12128
13238, 12820, 12816, 12268, 12790
13239, 12818, 12276, 12816, 12820
13240, 12274, 12818, 12820, 12819
13241, 12822, 12823, 12821, 12113
13242, 12823, 12818, 12274, 12821
13243, 12813, 12276, 12818, 12823
13244, 12275, 12813, 12823, 12822
13245, 821, 12827, 12824, 822
13246, 12827, 12825, 12278, 12824
13247, 12826, 12279, 12825, 12827
13248, 820, 12826, 12827, 821
13249, 12353, 12829, 819, 818
13250, 12829, 12826, 820, 819
13251, 12828, 12279, 12826, 12829
13252, 12158, 12828, 12829, 12353
13253, 12831, 12832, 12351, 12119
13254, 12832, 12828, 12158, 12351
13255, 12830, 12279, 12828, 12832
13256, 12277, 12830, 12832, 12831
13257, 12834, 12835, 12833, 12123
13258, 12835, 12830, 12277, 12833
13259, 12825, 12279, 12830, 12835
13260, 12278, 12825, 12835, 12834
13261, 188, 12839, 12836, 189
13262, 12839, 12837, 12281, 12836
13263, 12838, 12282, 12837, 12839
13264, 187, 12838, 12839, 188
13265, 12395, 12841, 186, 185
13266, 12841, 12838, 187, 186
13267, 12840, 12282, 12838, 12841
13268, 12170, 12840, 12841, 12395
13269, 12843, 12844, 12393, 12118
13270, 12844, 12840, 12170, 12393
13271, 12842, 12282, 12840, 12844
13272, 12280, 12842, 12844, 12843
13273, 12846, 12847, 12845, 12122
13274, 12847, 12842, 12280, 12845
13275, 12837, 12282, 12842, 12847
13276, 12281, 12837, 12847, 12846
13277, 825, 12850, 756, 67
13278, 12850, 12848, 757, 756
13279, 12849, 12284, 12848, 12850
13280, 824, 12849, 12850, 825
13281, 12824, 12852, 823, 822
13282, 12852, 12849, 824, 823
13283, 12851, 12284, 12849, 12852
13284, 12278, 12851, 12852, 12824
13285, 12854, 12855, 12834, 12123
13286, 12855, 12851, 12278, 12834
13287, 12853, 12284, 12851, 12855
13288, 12283, 12853, 12855, 12854
13289, 758, 12857, 12856, 759
13290, 12857, 12853, 12283, 12856
13291, 12848, 12284, 12853, 12857
13292, 757, 12848, 12857, 758
13293, 192, 12860, 826, 53
13294, 12860, 12858, 827, 826
13295, 12859, 12286, 12858, 12860
13296, 191, 12859, 12860, 192
13297, 12836, 12862, 190, 189
13298, 12862, 12859, 191, 190
13299, 12861, 12286, 12859, 12862
13300, 12281, 12861, 12862, 12836
13301, 12864, 12865, 12846, 12122
13302, 12865, 12861, 12281, 12846
13303, 12863, 12286, 12861, 12865
13304, 12285, 12863, 12865, 12864
13305, 828, 12867, 12866, 829
13306, 12867, 12863, 12285, 12866
13307, 12858, 12286, 12863, 12867
13308, 827, 12858, 12867, 828
13309, 12785, 12871, 12868, 12115
13310, 12871, 12869, 12287, 12868
13311, 12870, 12288, 12869, 12871
13312, 12266, 12870, 12871, 12785
13313, 762, 12873, 12783, 763
13314, 12873, 12870, 12266, 12783
13315, 12872, 12288, 12870, 12873
13316, 761, 12872, 12873, 762
13317, 12856, 12875, 760, 759
13318, 12875, 12872, 761, 760
13319, 12874, 12288, 12872, 12875
13320, 12283, 12874, 12875, 12856
13321, 12876, 12877, 12854, 12123
13322, 12877, 12874, 12283, 12854
13323, 12869, 12288, 12874, 12877
13324, 12287, 12869, 12877, 12876
13325, 12369, 12881, 12878, 12116
13326, 12881, 12879, 12289, 12878
13327, 12880, 12290, 12879, 12881
13328, 12162, 12880, 12881, 12369
13329, 832, 12883, 12367, 833
13330, 12883, 12880, 12162, 12367
13331, 12882, 12290, 12880, 12883
13332, 831, 12882, 12883, 832
13333, 12866, 12885, 830, 829
13334, 12885, 12882, 831, 830
13335, 12884, 12290, 12882, 12885
13336, 12285, 12884, 12885, 12866
13337, 12886, 12887, 12864, 12122
13338, 12887, 12884, 12285, 12864
13339, 12879, 12290, 12884, 12887
13340, 12289, 12879, 12887, 12886
13341, 12812, 12890, 772, 771
13342, 12890, 12888, 773, 772
13343, 12889, 12292, 12888, 12890
13344, 12275, 12889, 12890, 12812
13345, 12892, 12893, 12822, 12113
13346, 12893, 12889, 12275, 12822
13347, 12891, 12292, 12889, 12893
13348, 12291, 12891, 12893, 12892
13349, 144, 12896, 12894, 145
13350, 12896, 12891, 12291, 12894
13351, 12895, 12292, 12891, 12896
13352, 143, 12895, 12896, 144
13353, 774, 12897, 142, 51
13354, 12897, 12895, 143, 142
13355, 12888, 12292, 12895, 12897
13356, 773, 12888, 12897, 774
13357, 840, 12901, 12898, 841
13358, 12901, 12899, 12294, 12898
13359, 12900, 12295, 12899, 12901
13360, 839, 12900, 12901, 840
13361, 12363, 12903, 838, 837
13362, 12903, 12900, 839, 838
13363, 12902, 12295, 12900, 12903
13364, 12161, 12902, 12903, 12363
13365, 12905, 12906, 12361, 12114
13366, 12906, 12902, 12161, 12361
13367, 12904, 12295, 12902, 12906
13368, 12293, 12904, 12906, 12905
13369, 12908, 12909, 12907, 12117
13370, 12909, 12904, 12293, 12907
13371, 12899, 12295, 12904, 12909
13372, 12294, 12899, 12909, 12908
13373, 12330, 12912, 12908, 12117
13374, 12912, 12910, 12294, 12908
13375, 12911, 12296, 12910, 12912
13376, 12155, 12911, 12912, 12330
13377, 777, 12914, 12342, 778
13378, 12914, 12911, 12155, 12342
13379, 12913, 12296, 12911, 12914
13380, 776, 12913, 12914, 777
13381, 844, 12916, 775, 68
13382, 12916, 12913, 776, 775
13383, 12915, 12296, 12913, 12916
13384, 843, 12915, 12916, 844
13385, 12898, 12917, 842, 841
13386, 12917, 12915, 843, 842
13387, 12910, 12296, 12915, 12917
13388, 12294, 12910, 12917, 12898
13389, 12570, 12921, 12918, 12136
13390, 12921, 12919, 12297, 12918
13391, 12920, 12298, 12919, 12921
13392, 12213, 12920, 12921, 12570
13393, 148, 12923, 12568, 149
13394, 12923, 12920, 12213, 12568
13395, 12922, 12298, 12920, 12923
13396, 147, 12922, 12923, 148
13397, 12894, 12925, 146, 145
13398, 12925, 12922, 147, 146
13399, 12924, 12298, 12922, 12925
13400, 12291, 12924, 12925, 12894
13401, 12926, 12927, 12892, 12113
13402, 12927, 12924, 12291, 12892
13403, 12919, 12298, 12924, 12927
13404, 12297, 12919, 12927, 12926
13405, 12931, 12932, 12928, 12152
13406, 12932, 12929, 12300, 12928
13407, 12930, 12301, 12929, 12932
13408, 12299, 12930, 12932, 12931
13409, 12762, 12935, 12933, 12127
13410, 12935, 12930, 12299, 12933
13411, 12934, 12301, 12930, 12935
13412, 12261, 12934, 12935, 12762
13413, 12798, 12937, 12760, 12150
13414, 12937, 12934, 12261, 12760
13415, 12936, 12301, 12934, 12937
13416, 12270, 12936, 12937, 12798
13417, 12938, 12939, 12796, 12145
13418, 12939, 12936, 12270, 12796
13419, 12929, 12301, 12936, 12939
13420, 12300, 12929, 12939, 12938
13421, 12845, 12942, 12886, 12122
13422, 12942, 12940, 12289, 12886
13423, 12941, 12304, 12940, 12942
13424, 12280, 12941, 12942, 12845
13425, 12944, 12945, 12843, 12118
13426, 12945, 12941, 12280, 12843
13427, 12943, 12304, 12941, 12945
13428, 12302, 12943, 12945, 12944
13429, 12948, 12949, 12946, 12137
13430, 12949, 12943, 12302, 12946
13431, 12947, 12304, 12943, 12949
13432, 12303, 12947, 12949, 12948
13433, 12878, 12951, 12950, 12116
13434, 12951, 12947, 12303, 12950
13435, 12940, 12304, 12947, 12951
13436, 12289, 12940, 12951, 12878
13437, 12833, 12954, 12876, 12123
13438, 12954, 12952, 12287, 12876
13439, 12953, 12307, 12952, 12954
13440, 12277, 12953, 12954, 12833
13441, 12956, 12957, 12831, 12119
13442, 12957, 12953, 12277, 12831
13443, 12955, 12307, 12953, 12957
13444, 12305, 12955, 12957, 12956
13445, 12960, 12961, 12958, 12139
13446, 12961, 12955, 12305, 12958
13447, 12959, 12307, 12955, 12961
13448, 12306, 12959, 12961, 12960
13449, 12868, 12963, 12962, 12115
13450, 12963, 12959, 12306, 12962
13451, 12952, 12307, 12959, 12963
13452, 12287, 12952, 12963, 12868
13453, 12946, 12967, 12964, 12137
13454, 12967, 12965, 12308, 12964
13455, 12966, 12309, 12965, 12967
13456, 12302, 12966, 12967, 12946
13457, 12391, 12969, 12944, 12118
13458, 12969, 12966, 12302, 12944
13459, 12968, 12309, 12966, 12969
13460, 12169, 12968, 12969, 12391
13461, 12766, 12971, 12389, 12111
13462, 12971, 12968, 12169, 12389
13463, 12970, 12309, 12968, 12971
13464, 12262, 12970, 12971, 12766
13465, 12972, 12973, 12764, 12127
13466, 12973, 12970, 12262, 12764
13467, 12965, 12309, 12970, 12973
13468, 12308, 12965, 12973, 12972
13469, 12958, 12977, 12974, 12139
13470, 12977, 12975, 12310, 12974
13471, 12976, 12311, 12975, 12977
13472, 12305, 12976, 12977, 12958
13473, 12349, 12979, 12956, 12119
13474, 12979, 12976, 12305, 12956
13475, 12978, 12311, 12976, 12979
13476, 12157, 12978, 12979, 12349
13477, 12744, 12981, 12347, 12112
13478, 12981, 12978, 12157, 12347
13479, 12980, 12311, 12978, 12981
13480, 12257, 12980, 12981, 12744
13481, 12982, 12983, 12742, 12138
13482, 12983, 12980, 12257, 12742
13483, 12975, 12311, 12980, 12983
13484, 12310, 12975, 12983, 12982
13485, 12502, 12987, 12984, 12108
13486, 12987, 12985, 12314, 12984
13487, 12986, 12315, 12985, 12987
13488, 12197, 12986, 12987, 12502
13489, 12989, 12990, 12500, 12135
13490, 12990, 12986, 12197, 12500
13491, 12988, 12315, 12986, 12990
13492, 12312, 12988, 12990, 12989
13493, 12993, 12994, 12991, 12126
13494, 12994, 12988, 12312, 12991
13495, 12992, 12315, 12988, 12994
13496, 12313, 12992, 12994, 12993
13497, 12996, 12997, 12995, 12152
13498, 12997, 12992, 12313, 12995
13499, 12985, 12315, 12992, 12997
13500, 12314, 12985, 12997, 12996
13501, 12928, 13000, 12996, 12152
13502, 13000, 12998, 12314, 12996
13503, 12999, 12316, 12998, 13000
13504, 12300, 12999, 13000, 12928
13505, 12708, 13002, 12938, 12145
13506, 13002, 12999, 12300, 12938
13507, 13001, 12316, 12999, 13002
13508, 12250, 13001, 13002, 12708
13509, 12467, 13004, 12718, 12134
13510, 13004, 13001, 12250, 12718
13511, 13003, 12316, 13001, 13004
13512, 12189, 13003, 13004, 12467
13513, 12984, 13005, 12465, 12108
13514, 13005, 13003, 12189, 12465
13515, 12998, 12316, 13003, 13005
13516, 12314, 12998, 13005, 12984
13517, 13009, 13010, 13006, 12126
13518, 13010, 13007, 12318, 13006
13519, 13008, 12319, 13007, 13010
13520, 12317, 13008, 13010, 13009
13521, 12358, 13013, 13011, 12114
13522, 13013, 13008, 12317, 13011
13523, 13012, 12319, 13008, 13013
13524, 12163, 13012, 13013, 12358
13525, 12950, 13015, 12370, 12116
13526, 13015, 13012, 12163, 12370
13527, 13014, 12319, 13012, 13015
13528, 12303, 13014, 13015, 12950
13529, 13016, 13017, 12948, 12137
13530, 13017, 13014, 12303, 12948
13531, 13007, 12319, 13014, 13017
13532, 12318, 13007, 13017, 13016
13533, 12335, 13020, 12989, 12135
13534, 13020, 13018, 12312, 12989
13535, 13019, 12320, 13018, 13020
13536, 12153, 13019, 13020, 12335
13537, 12907, 13022, 12333, 12117
13538, 13022, 13019, 12153, 12333
13539, 13021, 12320, 13019, 13022
13540, 12293, 13021, 13022, 12907
13541, 13011, 13024, 12905, 12114
13542, 13024, 13021, 12293, 12905
13543, 13023, 12320, 13021, 13024
13544, 12317, 13023, 13024, 13011
13545, 12991, 13025, 13009, 12126
13546, 13025, 13023, 12317, 13009
13547, 13018, 12320, 13023, 13025
13548, 12312, 13018, 13025, 12991
13549, 12962, 13028, 12787, 12115
13550, 13028, 13026, 12267, 12787
13551, 13027, 12323, 13026, 13028
13552, 12306, 13027, 13028, 12962
13553, 13030, 13031, 12960, 12139
13554, 13031, 13027, 12306, 12960
13555, 13029, 12323, 13027, 13031
13556, 12321, 13029, 13031, 13030
13557, 13034, 13035, 13032, 12151
13558, 13035, 13029, 12321, 13032
13559, 13033, 12323, 13029, 13035
13560, 12322, 13033, 13035, 13034
13561, 12789, 13037, 13036, 12128
13562, 13037, 13033, 12322, 13036
13563, 13026, 12323, 13033, 13037
13564, 12267, 13026, 13037, 12789
13565, 12918, 13041, 13038, 12136
13566, 13041, 13039, 12324, 13038
13567, 13040, 12325, 13039, 13041
13568, 12297, 13040, 13041, 12918
13569, 12821, 13043, 12926, 12113
13570, 13043, 13040, 12297, 12926
13571, 13042, 12325, 13040, 13043
13572, 12274, 13042, 13043, 12821
13573, 13036, 13045, 12819, 12128
13574, 13045, 13042, 12274, 12819
13575, 13044, 12325, 13042, 13045
13576, 12322, 13044, 13045, 13036
13577, 13046, 13047, 13034, 12151
13578, 13047, 13044, 12322, 13034
13579, 13039, 12325, 13044, 13047
13580, 12324, 13039, 13047, 13046
13581, 13006, 13050, 12993, 12126
13582, 13050, 13048, 12313, 12993
13583, 13049, 12326, 13048, 13050
13584, 12318, 13049, 13050, 13006
13585, 12964, 13052, 13016, 12137
13586, 13052, 13049, 12318, 13016
13587, 13051, 12326, 13049, 13052
13588, 12308, 13051, 13052, 12964
13589, 12933, 13054, 12972, 12127
13590, 13054, 13051, 12308, 12972
13591, 13053, 12326, 13051, 13054
13592, 12299, 13053, 13054, 12933
13593, 12995, 13055, 12931, 12152
13594, 13055, 13053, 12299, 12931
13595, 13048, 12326, 13053, 13055
13596, 12313, 13048, 13055, 12995
13597, 13032, 13059, 13056, 12151
13598, 13059, 13057, 12327, 13056
13599, 13058, 12328, 13057, 13059
13600, 12321, 13058, 13059, 13032
13601, 12974, 13061, 13030, 12139
13602, 13061, 13058, 12321, 13030
13603, 13060, 12328, 13058, 13061
13604, 12310, 13060, 13061, 12974
13605, 12808, 13063, 12982, 12138
13606, 13063, 13060, 12310, 12982
13607, 13062, 12328, 13060, 13063
13608, 12272, 13062, 13063, 12808
13609, 13064, 13065, 12806, 12144
13610, 13065, 13062, 12272, 12806
13611, 13057, 12328, 13062, 13065
13612, 12327, 13057, 13065, 13064
13613, 12688, 13068, 13064, 12144
13614, 13068, 13066, 12327, 13064
13615, 13067, 12329, 13066, 13068
13616, 12243, 13067, 13068, 12688
13617, 12574, 13070, 12686, 12107
13618, 13070, 13067, 12243, 12686
13619, 13069, 12329, 13067, 13070
13620, 12214, 13069, 13070, 12574
13621, 13038, 13072, 12572, 12136
13622, 13072, 13069, 12214, 12572
13623, 13071, 12329, 13069, 13072
13624, 12324, 13071, 13072, 13038
13625, 13056, 13073, 13046, 12151
13626, 13073, 13071, 12324, 13046
13627, 13066, 12329, 13071, 13073
13628, 12327, 13066, 13073, 13056
*nSet, nSet=gripClampLeft
1, 2, 3, 4, 69, 70, 71, 72, 73, 74
75, 76, 77, 78, 79, 80, 81, 82, 83, 84
85, 86, 87, 88, 89, 90, 91, 92, 93, 94
95, 96, 97, 98, 99, 100, 101, 102, 103, 104
105, 106, 107, 108, 109, 110, 111, 112, 113, 114
115, 116, 117, 118, 119, 193, 194, 195, 196, 197
198, 199, 200, 201, 202, 203, 204, 205, 206, 207
208, 209, 210, 211, 212, 213, 214, 215, 216, 217
218, 219, 220, 221, 222, 223, 224, 225, 226, 227
228, 229, 230, 231, 232, 233, 234, 235, 236, 237
238, 239, 240, 241, 242, 243, 244, 245, 246, 247
248, 249, 250, 251, 252, 253, 254, 255, 256, 257
258, 259, 260, 261, 262, 263, 264, 265, 266, 267
268, 269, 270, 271, 272, 273, 274, 275, 276, 277
278, 279, 280, 281, 845, 846, 847, 848, 849, 850
851, 852, 853, 854, 855, 856, 857, 858, 859, 860
861, 862, 863, 864, 865, 866, 867, 868, 869, 870
871, 872, 873, 874, 875, 876, 877, 878, 879, 880
881, 882, 883, 884, 885, 886, 887, 888, 889, 890
891, 892, 893, 894, 895, 896, 897, 898, 899, 900
901, 902, 903, 904, 905, 906, 907, 908, 909, 910
911, 912, 913, 914, 915, 916, 917, 918, 919, 920
921, 922, 923, 924, 925, 926, 927, 928, 929, 930
931, 932, 933, 934, 935, 936, 937, 938, 939, 940
941, 942, 943, 944, 945, 946, 947, 948, 949, 950
951, 952, 953, 954, 955, 956, 957, 958, 959, 960
961, 962, 963, 964, 965, 966, 967, 968, 969, 970
971, 972, 973, 974, 975, 976, 977, 978, 979, 980
981, 982, 983, 984, 985, 986, 987, 988, 989, 990
991, 992, 993, 994, 995, 996, 997, 998, 999, 1000
1001, 1002, 1003, 1004, 1005, 1006, 1007, 1008, 1009, 1010
1011, 1012, 1013, 1014, 1015, 1016, 1017, 1018, 1019, 1020
1021, 1022, 1023, 1024, 1025, 1026, 1027, 1028, 1029, 1030
1031, 1032, 1033, 1034, 1035, 1036, 1037, 1038, 1039, 1040
1041, 1042, 1043, 1044, 1045, 1046, 1047, 1048, 1049, 1050
1051, 1052, 1053, 1054, 1055, 1056, 1057, 1058, 1059, 1060
1061, 1062, 1063, 1064, 1065, 1066, 1067, 1068, 1069, 1070
1071, 1072, 1073, 1074, 1075, 1076, 1077, 1078, 1079, 1080
1081, 1082, 1083, 1084, 1085, 1086, 1087, 1088, 1089, 1090
1091, 1092, 1093, 1094, 1095, 1096, 1097, 1098, 1099, 1100
1101, 1102, 1103, 1104, 1105, 1106, 1107, 1108, 1109, 1110
1111, 1112, 1113, 1114, 1115, 1116, 1117, 1118, 1119, 1120
1121, 1122, 1123, 1124, 1125, 1126, 1127, 1128, 1129, 1130
1131, 1132, 1133, 1134, 1135, 1136, 1137, 1138, 1139, 1140
1141, 1142, 1143, 1144, 1145, 1146, 1147, 1148, 1149, 1150
1151, 1152, 1153, 1154, 1155, 1156, 1157, 1158, 1159, 1160
1161, 1162, 1163, 1164, 1165, 1166, 1167, 1168, 1169, 1170
1171, 1172, 1173, 1174, 1175, 1176, 1177, 1178, 1179, 1180
1181, 1182, 1183, 1184, 1185, 1186, 1187, 1188, 1189, 1190
1191, 1192, 1193, 1194, 1195, 1196, 1197, 1198, 1199, 1200
1201, 1202, 1203, 1204, 1205, 1206, 1207, 1208, 1209, 1210
1211, 1212, 1213, 1214, 1215, 1216, 1217, 1218, 1219, 1220
1221, 1222, 1223, 1224, 1225, 1226, 1227, 1228, 1229, 1230
1231, 1232, 1233, 1234, 1235, 1236, 1237, 1238, 1239, 1240
1241, 1242, 1243, 1244, 1245, 1246, 1247, 1248, 1249, 1250
1251, 1252, 1253, 1254, 1255, 1256, 1257, 1258, 1259, 1260
1261, 1262, 1263, 1264, 1265, 1266, 1267, 1268, 1269, 1270
1271, 1272, 1273, 1274, 1275, 1276, 1277, 1278, 1279, 1280
1281, 1282, 1283, 1284, 1285, 1286, 1287, 1288, 1289, 1290
1291, 1292, 1293, 1294, 1295, 1296, 1297, 1298, 1299, 1300
1301, 1302, 1303, 1304, 1305, 1306, 1307, 1308, 1309, 1310
1311, 1312, 1313, 1314, 1315, 1316, 1317, 1318, 1319, 1320
1321, 1322, 1323, 1324, 1325, 1326, 1327, 1328, 1329, 1330
1331, 1332, 1333, 1334, 1335, 1336, 1337, 1338, 1339, 1340
1341, 1342, 1343, 1344, 1345, 1346, 1347, 1348, 1349, 1350
1351, 1352, 1353, 1354, 1355, 1356, 1357, 1358, 1359, 1360
1361, 1362, 1363, 1364, 1365, 1366, 1367, 1368, 1369, 1370
1371, 1372, 1373, 1374, 1375, 1376, 1377, 1378, 1379, 1380
1381, 1382, 1383, 1384, 1385, 1386, 1387, 1388, 1389, 1390
1391, 1392, 1393, 1394, 1395, 1396, 1397, 1398, 1399, 1400
1401, 1402, 1403, 1404, 1405, 1406, 1407, 1408, 1409, 1410
1411, 1412, 1413, 1414, 1415, 1416, 1417, 1418, 1419, 1420
1421, 1422, 1423, 1424, 1425, 1426, 1427, 1428, 1429, 1430
1431, 1432, 1433, 1434, 1435, 1436, 1437, 1438, 1439, 1440
1441, 1442, 1443, 1444, 1445, 1446, 1447, 1448, 1449, 1450
1451, 1452, 1453, 1454, 1455, 1456, 1457, 1458, 1459, 1460
1461, 1462, 1463, 1464, 1465, 1466, 1467, 1468, 1469, 1470
1471, 1472, 1473, 1474, 1475, 1476, 1477, 1478, 1479, 1480
1481, 1482, 1483, 1484, 1485, 1486, 1487, 1488, 1489, 1490
1491, 1492, 1493, 1494, 1495, 1496, 1497, 1498, 1499, 1500
1501, 1502, 1503, 1504, 1505, 1506, 1507, 1508, 1509, 1510
1511, 1512, 1513, 1514, 1515, 1516, 1517, 1518, 1519, 1520
1521, 1522, 1523, 1524, 1525, 1526, 1527, 1528, 1529, 1530
1531, 1532, 1533, 1534, 1535, 1536, 1537, 1538, 1539, 1540
1541, 1542, 1543, 1544, 1545, 1546, 1547, 1548, 1549, 1550
1551, 1552, 1553, 1554, 1555, 1556, 1557, 1558, 1559, 1560
1561, 1562, 1563, 1564, 1565, 1566, 1567, 1568, 1569, 1570
1571, 1572, 1573, 1574, 1575, 1576, 1577, 1578, 1579, 1580
1581, 1582, 1583, 1584, 1585, 1586, 1587, 1588, 1589, 1590
1591, 1592, 1593, 1594, 1595, 1596, 1597, 1598, 1599, 1600
1601, 1602, 1603, 1604, 1605, 1606, 1607, 1608, 1609, 1610
1611, 1612, 1613, 1614, 1615, 1616, 1617, 1618, 1619, 1620
1621, 1622, 1623, 1624, 1625, 1626, 1627, 1628, 1629, 1630
1631, 1632, 1633, 1634, 1635, 1636, 1637, 1638, 1639, 1640
1641, 1642, 1643, 1644, 1645, 1646, 1647, 1648, 1649, 1650
1651, 1652, 1653, 1654, 1655, 1656, 1657, 1658, 1659, 1660
1661, 1662, 1663, 1664, 1665, 1666, 1667, 1668, 1669, 1670
1671, 1672, 1673, 1674, 1675, 1676, 1677, 1678, 1679, 1680
1681, 1682, 1683, 1684, 1685, 1686, 1687, 1688, 1689, 1690
1691, 1692, 1693, 1694, 1695, 1696, 1697, 1698, 1699, 1700
1701, 1702, 1703, 1704, 1705, 1706, 1707, 1708, 1709, 1710
1711, 1712, 1713, 1714, 1715, 1716, 1717, 1718, 1719, 1720
1721, 1722, 1723, 1724, 1725, 1726, 1727, 1728, 1729, 1730
1731, 1732, 1733, 1734, 1735, 1736, 1737, 1738, 1739, 1740
1741, 1742, 1743, 1744, 1745, 1746, 1747, 1748, 1749, 1750
1751, 1752, 1753, 1754, 1755, 1756, 1757, 1758, 1759, 1760
1761, 1762, 1763, 1764, 1765, 1766, 1767, 1768, 1769, 1770
1771, 1772, 1773, 1774, 1775, 1776, 1777, 1778, 1779, 1780
1781, 1782, 1783, 1784, 1785, 1786, 1787, 1788, 1789, 1790
1791, 1792, 1793, 1794, 1795, 1796, 1797, 1798, 1799, 1800
1801, 1802, 1803, 1804, 1805, 1806, 1807, 1808, 1809, 1810
1811, 1812, 1813
*nSet, nSet=gripClampRight
51, 53, 67, 68, 142, 143, 144, 145, 146, 147
148, 149, 150, 151, 152, 153, 154, 155, 156, 157
158, 159, 160, 161, 162, 163, 164, 165, 166, 167
168, 169, 170, 171, 172, 173, 174, 175, 176, 177
178, 179, 180, 181, 182, 183, 184, 185, 186, 187
188, 189, 190, 191, 192, 756, 757, 758, 759, 760
761, 762, 763, 764, 765, 766, 767, 768, 769, 770
771, 772, 773, 774, 775, 776, 777, 778, 779, 780
781, 782, 783, 784, 785, 786, 787, 788, 789, 790
791, 792, 793, 794, 795, 796, 797, 798, 799, 800
801, 802, 803, 804, 805, 806, 807, 808, 809, 810
811, 812, 813, 814, 815, 816, 817, 818, 819, 820
821, 822, 823, 824, 825, 826, 827, 828, 829, 830
831, 832, 833, 834, 835, 836, 837, 838, 839, 840
841, 842, 843, 844, 12105, 12106, 12107, 12108, 12109, 12110
12111, 12112, 12113, 12114, 12115, 12116, 12117, 12118, 12119, 12120
12121, 12122, 12123, 12124, 12125, 12126, 12127, 12128, 12129, 12130
12131, 12132, 12133, 12134, 12135, 12136, 12137, 12138, 12139, 12140
12141, 12142, 12143, 12144, 12145, 12146, 12147, 12148, 12149, 12150
12151, 12152, 12153, 12154, 12155, 12156, 12157, 12158, 12159, 12160
12161, 12162, 12163, 12164, 12165, 12166, 12167, 12168, 12169, 12170
12171, 12172, 12173, 12174, 12175, 12176, 12177, 12178, 12179, 12180
12181, 12182, 12183, 12184, 12185, 12186, 12187, 12188, 12189, 12190
12191, 12192, 12193, 12194, 12195, 12196, 12197, 12198, 12199, 12200
12201, 12202, 12203, 12204, 12205, 12206, 12207, 12208, 12209, 12210
12211, 12212, 12213, 12214, 12215, 12216, 12217, 12218, 12219, 12220
12221, 12222, 12223, 12224, 12225, 12226, 12227, 12228, 12229, 12230
12231, 12232, 12233, 12234, 12235, 12236, 12237, 12238, 12239, 12240
12241, 12242, 12243, 12244, 12245, 12246, 12247, 12248, 12249, 12250
12251, 12252, 12253, 12254, 12255, 12256, 12257, 12258, 12259, 12260
12261, 12262, 12263, 12264, 12265, 12266, 12267, 12268, 12269, 12270
12271, 12272, 12273, 12274, 12275, 12276, 12277, 12278, 12279, 12280
12281, 12282, 12283, 12284, 12285, 12286, 12287, 12288, 12289, 12290
12291, 12292, 12293, 12294, 12295, 12296, 12297, 12298, 12299, 12300
12301, 12302, 12303, 12304, 12305, 12306, 12307, 12308, 12309, 12310
12311, 12312, 12313, 12314, 12315, 12316, 12317, 12318, 12319, 12320
12321, 12322, 12323, 12324, 12325, 12326, 12327, 12328, 12329, 12330
12331, 12332, 12333, 12334, 12335, 12336, 12337, 12338, 12339, 12340
12341, 12342, 12343, 12344, 12345, 12346, 12347, 12348, 12349, 12350
12351, 12352, 12353, 12354, 12355, 12356, 12357, 12358, 12359, 12360
12361, 12362, 12363, 12364, 12365, 12366, 12367, 12368, 12369, 12370
12371, 12372, 12373, 12374, 12375, 12376, 12377, 12378, 12379, 12380
12381, 12382, 12383, 12384, 12385, 12386, 12387, 12388, 12389, 12390
12391, 12392, 12393, 12394, 12395, 12396, 12397, 12398, 12399, 12400
12401, 12402, 12403, 12404, 12405, 12406, 12407, 12408, 12409, 12410
12411, 12412, 12413, 12414, 12415, 12416, 12417, 12418, 12419, 12420
12421, 12422, 12423, 12424, 12425, 12426, 12427, 12428, 12429, 12430
12431, 12432, 12433, 12434, 12435, 12436, 12437, 12438, 12439, 12440
12441, 12442, 12443, 12444, 12445, 12446, 12447, 12448, 12449, 12450
12451, 12452, 12453, 12454, 12455, 12456, 12457, 12458, 12459, 12460
12461, 12462, 12463, 12464, 12465, 12466, 12467, 12468, 12469, 12470
12471, 12472, 12473, 12474, 12475, 12476, 12477, 12478, 12479, 12480
12481, 12482, 12483, 12484, 12485, 12486, 12487, 12488, 12489, 12490
12491, 12492, 12493, 12494, 12495, 12496, 12497, 12498, 12499, 12500
12501, 12502, 12503, 12504, 12505, 12506, 12507, 12508, 12509, 12510
12511, 12512, 12513, 12514, 12515, 12516, 12517, 12518, 12519, 12520
12521, 12522, 12523, 12524, 12525, 12526, 12527, 12528, 12529, 12530
12531, 12532, 12533, 12534, 12535, 12536, 12537, 12538, 12539, 12540
12541, 12542, 12543, 12544, 12545, 12546, 12547, 12548, 12549, 12550
12551, 12552, 12553, 12554, 12555, 12556, 12557, 12558, 12559, 12560
12561, 12562, 12563, 12564, 12565, 12566, 12567, 12568, 12569, 12570
12571, 12572, 12573, 12574, 12575, 12576, 12577, 12578, 12579, 12580
12581, 12582, 12583, 12584, 12585, 12586, 12587, 12588, 12589, 12590
12591, 12592, 12593, 12594, 12595, 12596, 12597, 12598, 12599, 12600
12601, 12602, 12603, 12604, 12605, 12606, 12607, 12608, 12609, 12610
12611, 12612, 12613, 12614, 12615, 12616, 12617, 12618, 12619, 12620
12621, 12622, 12623, 12624, 12625, 12626, 12627, 12628, 12629, 12630
12631, 12632, 12633, 12634, 12635, 12636, 12637, 12638, 12639, 12640
12641, 12642, 12643, 12644, 12645, 12646, 12647, 12648, 12649, 12650
12651, 12652, 12653, 12654, 12655, 12656, 12657, 12658, 12659, 12660
12661, 12662, 12663, 12664, 12665, 12666, 12667, 12668, 12669, 12670
12671, 12672, 12673, 12674, 12675, 12676, 12677, 12678, 12679, 12680
12681, 12682, 12683, 12684, 12685, 12686, 12687, 12688, 12689, 12690
12691, 12692, 12693, 12694, 12695, 12696, 12697, 12698, 12699, 12700
12701, 12702, 12703, 12704, 12705, 12706, 12707, 12708, 12709, 12710
12711, 12712, 12713, 12714, 12715, 12716, 12717, 12718, 12719, 12720
12721, 12722, 12723, 12724, 12725, 12726, 12727, 12728, 12729, 12730
12731, 12732, 12733, 12734, 12735, 12736, 12737, 12738, 12739, 12740
12741, 12742, 12743, 12744, 12745, 12746, 12747, 12748, 12749, 12750
12751, 12752, 12753, 12754, 12755, 12756, 12757, 12758, 12759, 12760
12761, 12762, 12763, 12764, 12765, 12766, 12767, 12768, 12769, 12770
12771, 12772, 12773, 12774, 12775, 12776, 12777, 12778, 12779, 12780
12781, 12782, 12783, 12784, 12785, 12786, 12787, 12788, 12789, 12790
12791, 12792, 12793, 12794, 12795, 12796, 12797, 12798, 12799, 12800
12801, 12802, 12803, 12804, 12805, 12806, 12807, 12808, 12809, 12810
12811, 12812, 12813, 12814, 12815, 12816, 12817, 12818, 12819, 12820
12821, 12822, 12823, 12824, 12825, 12826, 12827, 12828, 12829, 12830
12831, 12832, 12833, 12834, 12835, 12836, 12837, 12838, 12839, 12840
12841, 12842, 12843, 12844, 12845, 12846, 12847, 12848, 12849, 12850
12851, 12852, 12853, 12854, 12855, 12856, 12857, 12858, 12859, 12860
12861, 12862, 12863, 12864, 12865, 12866, 12867, 12868, 12869, 12870
12871, 12872, 12873, 12874, 12875, 12876, 12877, 12878, 12879, 12880
12881, 12882, 12883, 12884, 12885, 12886, 12887, 12888, 12889, 12890
12891, 12892, 12893, 12894, 12895, 12896, 12897, 12898, 12899, 12900
12901, 12902, 12903, 12904, 12905, 12906, 12907, 12908, 12909, 12910
12911, 12912, 12913, 12914, 12915, 12916, 12917, 12918, 12919, 12920
12921, 12922, 12923, 12924, 12925, 12926, 12927, 12928, 12929, 12930
12931, 12932, 12933, 12934, 12935, 12936, 12937, 12938, 12939, 12940
12941, 12942, 12943, 12944, 12945, 12946, 12947, 12948, 12949, 12950
12951, 12952, 12953, 12954, 12955, 12956, 12957, 12958, 12959, 12960
12961, 12962, 12963, 12964, 12965, 12966, 12967, 12968, 12969, 12970
12971, 12972, 12973, 12974, 12975, 12976, 12977, 12978, 12979, 12980
12981, 12982, 12983, 12984, 12985, 12986, 12987, 12988, 12989, 12990
12991, 12992, 12993, 12994, 12995, 12996, 12997, 12998, 12999, 13000
13001, 13002, 13003, 13004, 13005, 13006, 13007, 13008, 13009, 13010
13011, 13012, 13013, 13014, 13015, 13016, 13017, 13018, 13019, 13020
13021, 13022, 13023, 13024, 13025, 13026, 13027, 13028, 13029, 13030
13031, 13032, 13033, 13034, 13035, 13036, 13037, 13038, 13039, 13040
13041, 13042, 13043, 13044, 13045, 13046, 13047, 13048, 13049, 13050
13051, 13052, 13053, 13054, 13055, 13056, 13057, 13058, 13059, 13060
13061, 13062, 13063, 13064, 13065, 13066, 13067, 13068, 13069, 13070
13071, 13072, 13073
*nSet, nSet=gaugeLeftEdge
19, 21, 120, 121, 122, 123, 124, 125, 126, 127
128, 129, 130
*nSet, nSet=gaugeRightEdge
35, 36, 131, 132, 133, 134, 135, 136, 137, 138
139, 140, 141
*elSet, elSet=gaugeRegion
6949, 6950, 6951, 6952, 6953, 6954, 6955, 6956, 6957, 6958
6959, 6960, 6961, 6962, 6963, 6964, 6965, 6966, 6967, 6968
6969, 6970, 6971, 6972, 6973, 6974, 6975, 6976, 6977, 6978
6979, 6980, 6981, 6982, 6983, 6984, 6985, 6986, 6987, 6988
6989, 6990, 6991, 6992, 6993, 6994, 6995, 6996, 6997, 6998
6999, 7000, 7001, 7002, 7003, 7004, 7005, 7006, 7007, 7008
7009, 7010, 7011, 7012, 7013, 7014, 7015, 7016, 7017, 7018
7019, 7020, 7021, 7022, 7023, 7024, 7025, 7026, 7027, 7028
7029, 7030, 7031, 7032, 7033, 7034, 7035, 7036, 7037, 7038
7039, 7040, 7041, 7042, 7043, 7044, 7045, 7046, 7047, 7048
7049, 7050, 7051, 7052, 7053, 7054, 7055, 7056, 7057, 7058
7059, 7060, 7061, 7062, 7063, 7064, 7065, 7066, 7067, 7068
7069, 7070, 7071, 7072, 7073, 7074, 7075, 7076, 7077, 7078
7079, 7080, 7081, 7082, 7083, 7084, 7085, 7086, 7087, 7088
7089, 7090, 7091, 7092, 7093, 7094, 7095, 7096, 7097, 7098
7099, 7100, 7101, 7102, 7103, 7104, 7105, 7106, 7107, 7108
7109, 7110, 7111, 7112, 7113, 7114, 7115, 7116, 7117, 7118
7119, 7120, 7121, 7122, 7123, 7124, 7125, 7126, 7127, 7128
7129, 7130, 7131, 7132, 7133, 7134, 7135, 7136, 7137, 7138
7139, 7140, 7141, 7142, 7143, 7144, 7145, 7146, 7147, 7148
7149, 7150, 7151, 7152, 7153, 7154, 7155, 7156, 7157, 7158
7159, 7160, 7161, 7162, 7163, 7164, 7165, 7166, 7167, 7168
7169, 7170, 7171, 7172, 7173, 7174, 7175, 7176, 7177, 7178
7179, 7180, 7181, 7182, 7183, 7184, 7185, 7186, 7187, 7188
7189, 7190, 7191, 7192, 7193, 7194, 7195, 7196, 7197, 7198
7199, 7200, 7201, 7202, 7203, 7204, 7205, 7206, 7207, 7208
7209, 7210, 7211, 7212, 7213, 7214, 7215, 7216, 7217, 7218
7219, 7220, 7221, 7222, 7223, 7224, 7225, 7226, 7227, 7228
7229, 7230, 7231, 7232, 7233, 7234, 7235, 7236, 7237, 7238
7239, 7240, 7241, 7242, 7243, 7244, 7245, 7246, 7247, 7248
7249, 7250, 7251, 7252, 7253, 7254, 7255, 7256, 7257, 7258
7259, 7260, 7261, 7262, 7263, 7264, 7265, 7266, 7267, 7268
7269, 7270, 7271, 7272, 7273, 7274, 7275, 7276, 7277, 7278
7279, 7280, 7281, 7282, 7283, 7284, 7285, 7286, 7287, 7288
7289, 7290, 7291, 7292, 7293, 7294, 7295, 7296, 7297, 7298
7299, 7300, 7301, 7302, 7303, 7304, 7305, 7306, 7307, 7308
7309, 7310, 7311, 7312, 7313, 7314, 7315, 7316, 7317, 7318
7319, 7320, 7321, 7322, 7323, 7324, 7325, 7326, 7327, 7328
7329, 7330, 7331, 7332, 7333, 7334, 7335, 7336, 7337, 7338
7339, 7340, 7341, 7342, 7343, 7344, 7345, 7346, 7347, 7348
7349, 7350, 7351, 7352, 7353, 7354, 7355, 7356, 7357, 7358
7359, 7360, 7361, 7362, 7363, 7364, 7365, 7366, 7367, 7368
7369, 7370, 7371, 7372, 7373, 7374, 7375, 7376, 7377, 7378
7379, 7380, 7381, 7382, 7383, 7384, 7385, 7386, 7387, 7388
7389, 7390, 7391, 7392, 7393, 7394, 7395, 7396, 7397, 7398
7399, 7400, 7401, 7402, 7403, 7404, 7405, 7406, 7407, 7408
7409, 7410, 7411, 7412, 7413, 7414, 7415, 7416, 7417, 7418
7419, 7420, 7421, 7422, 7423, 7424, 7425, 7426, 7427, 7428
7429, 7430, 7431, 7432, 7433, 7434, 7435, 7436, 7437, 7438
7439, 7440, 7441, 7442, 7443, 7444, 7445, 7446, 7447, 7448
7449, 7450, 7451, 7452, 7453, 7454, 7455, 7456, 7457, 7458
7459, 7460, 7461, 7462, 7463, 7464, 7465, 7466, 7467, 7468
7469, 7470, 7471, 7472, 7473, 7474, 7475, 7476, 7477, 7478
7479, 7480, 7481, 7482, 7483, 7484, 7485, 7486, 7487, 7488
7489, 7490, 7491, 7492, 7493, 7494, 7495, 7496, 7497, 7498
7499, 7500, 7501, 7502, 7503, 7504, 7505, 7506, 7507, 7508
7509, 7510, 7511, 7512, 7513, 7514, 7515, 7516, 7517, 7518
7519, 7520, 7521, 7522, 7523, 7524, 7525, 7526, 7527, 7528
7529, 7530, 7531, 7532, 7533, 7534, 7535, 7536, 7537, 7538
7539, 7540, 7541, 7542, 7543, 7544, 7545, 7546, 7547, 7548
7549, 7550, 7551, 7552, 7553, 7554, 7555, 7556, 7557, 7558
7559, 7560, 7561, 7562, 7563, 7564, 7565, 7566, 7567, 7568
7569, 7570, 7571, 7572, 7573, 7574, 7575, 7576, 7577, 7578
7579, 7580, 7581, 7582, 7583, 7584, 7585, 7586, 7587, 7588
7589, 7590, 7591, 7592, 7593, 7594, 7595, 7596, 7597, 7598
7599, 7600, 7601, 7602, 7603, 7604, 7605, 7606, 7607, 7608
7609, 7610, 7611, 7612, 7613, 7614, 7615, 7616, 7617, 7618
7619, 7620, 7621, 7622, 7623, 7624, 7625, 7626, 7627, 7628
7629, 7630, 7631, 7632, 7633, 7634, 7635, 7636, 7637, 7638
7639, 7640, 7641, 7642, 7643, 7644, 7645, 7646, 7647, 7648
7649, 7650, 7651, 7652, 7653, 7654, 7655, 7656, 7657, 7658
7659, 7660, 7661, 7662, 7663, 7664, 7665, 7666, 7667, 7668
7669, 7670, 7671, 7672, 7673, 7674, 7675, 7676, 7677, 7678
7679, 7680, 7681, 7682, 7683, 7684, 7685, 7686, 7687, 7688
7689, 7690, 7691, 7692, 7693, 7694, 7695, 7696, 7697, 7698
7699, 7700, 7701, 7702, 7703, 7704, 7705, 7706, 7707, 7708
7709, 7710, 7711, 7712, 7713, 7714, 7715, 7716, 7717, 7718
7719, 7720, 7721, 7722, 7723, 7724, 7725, 7726, 7727, 7728
7729, 7730, 7731, 7732, 7733, 7734, 7735, 7736, 7737, 7738
7739, 7740, 7741, 7742, 7743, 7744, 7745, 7746, 7747, 7748
7749, 7750, 7751, 7752, 7753, 7754, 7755, 7756, 7757, 7758
7759, 7760, 7761, 7762, 7763, 7764
