** ------------------------------------------------------------------------
** Uniaxial tension test on a dogbone specimen (from dogbone.stl), using the
** Marmot compressible NeoHooke material -- see dogbone.inp for the linear
** elastic / 2D plane-stress counterpart of this same test.
**
** Geometry: identical to dogbone.inp, but meshed as ONE LAYER of 3D hex
** elements through the 2 mm thickness (dogbone_mesh_3d.inp, generated by
** ../mesh_generation/generate_mesh_3d.py) instead of a 2D plane mesh,
** because the Marmot hyperelastic material/element formulation is 3D-only:
**   overall length      : 115.0 mm  (x in [-57.5, 57.5])
**   grip width           :  25.0 mm  (y in [-12.5, 12.5])
**   grip length          :  15.0 mm  (x in [-57.5,-42.5] and [42.5, 57.5])
**   gauge (narrow) width  :   6.0 mm  (y in [-3.0, 3.0])
**   gauge (narrow) length :  33.0 mm  (x in [-16.5, 16.5])
**   thickness             :   2.0 mm  (single element layer, z in [0, 2.0])
**
** Material: compressible NeoHooke (finite-strain hyperelastic), K/G chosen
** to match the small-strain shear stiffness of a nearly-incompressible
** rubber-like material (E=210000 MPa, nu=0.47): K = E/(3(1-2nu)) =
** 1166666.7 MPa, G = E/(2(1+nu)) = 71428.6 MPa. (Previously nu=0.3, giving
** K=175000/G=80769.2 -- see git history for that run's results.)
**
** Dirichlet BCs mirror dogbone.inp: the outer 10 mm of each grip is treated
** as a rigid clamp (all nodes through the thickness, both z=0 and z=2mm),
** with the right grip displaced 0.5 mm in x. A third BC pins uz=0 on the
** z=0 node layer to remove the single otherwise-unconstrained out-of-plane
** rigid-body mode (there is no z-loading, so this adds no spurious stress).
** ------------------------------------------------------------------------

*include, input=../meshes/dogbone_mesh_3d.inp

*material, name=COMPRESSIBLENEOHOOKE, id=rubber
** K [MPa], G [MPa]
1166666.7, 71428.6

*section, name=section1, material=rubber, type=solid
all

*job, name=dogboneNeoHookeJob, domain=3d
*solver, solver=NIST, name=theSolver
linsolver=pardiso

*fieldOutput
>>perNode, nSet=all, field=displacement, result=U, name=displacement
>>perNode, nSet=gripClampLeft, field=displacement, result=U, name=U_gripLeft
>>perNode, nSet=gripClampRight, field=displacement, result=U, name=U_gripRight
>>perNode, nSet=gaugeLeftEdge, field=displacement, result=U, name=U_gaugeLeft
>>perNode, nSet=gaugeRightEdge, field=displacement, result=U, name=U_gaugeRight
** per-element stress, averaged over the element's 8 quadrature points -- this
** finite-strain Marmot element/material does not expose a "strain" result
** (only stress), unlike the small-strain edelweiss CPS4 elements used in
** dogbone.inp
>>perElement, elSet=all, result=stress, name=stress, quadraturePoint=0:8, f(x)='np.mean(x,axis=1)'

** monitor the mean axial (x-) displacement of the grip clamps and of the
** narrow gauge section boundaries -> allows a direct comparison of the
** elongation localized in the gauge section vs. the whole free specimen
*output, type=monitor
fieldOutput=U_gripLeft, f(x)='mean(x[:,0])'
*output, type=monitor
fieldOutput=U_gripRight, f(x)='mean(x[:,0])'
*output, type=monitor
fieldOutput=U_gaugeLeft, f(x)='mean(x[:,0])'
*output, type=monitor
fieldOutput=U_gaugeRight, f(x)='mean(x[:,0])'

*output, type=ensight, name=esExport
>>configuration, overwrite=yes
>>perNode, fieldOutput=displacement
>>perElement, fieldOutput=stress

*step, solver=theSolver
maxInc=1.0, minInc=1e-6, maxNumInc=1, maxIter=25, stepLength=1.0
>>dirichlet, name=gripLeft,  nSet=gripClampLeft,  field=displacement, 1=0.0, 2=0.0
>>dirichlet, name=gripRight, nSet=gripClampRight, field=displacement, 1=0.5, 2=0.0
>>dirichlet, name=z0,        nSet=z0Layer,        field=displacement, 3=0.0
